*SPEF "ieee 1481-1999"
*DESIGN "TopModule"
*DATE "22:37:34 Saturday May 24, 2025"
*VENDOR "The OpenROAD Project"
*PROGRAM "OpenROAD"
*VERSION "b16bda7e82721d10566ff7e2b68f1ff0be9f9e38"
*DESIGN_FLOW "NAME_SCOPE LOCAL" "PIN_CAP NONE"
*DIVIDER /
*DELIMITER :
*BUS_DELIMITER []
*T_UNIT 1 NS
*C_UNIT 1 PF
*R_UNIT 1 OHM
*L_UNIT 1 HENRY

*NAME_MAP
*3 net9
*4 net10
*5 net11
*6 net12
*7 net13
*8 net14
*9 net15
*10 net16
*11 clk
*12 rst
*13 seg[0]
*14 seg[1]
*15 seg[2]
*16 seg[3]
*17 seg[4]
*18 seg[5]
*19 seg[6]
*20 _000_
*21 _001_
*22 _002_
*23 _003_
*24 _004_
*25 _005_
*26 _006_
*27 _007_
*28 _008_
*29 _009_
*30 _010_
*31 _011_
*32 _012_
*33 _013_
*34 _014_
*35 _015_
*36 _016_
*37 _017_
*38 _018_
*39 _019_
*40 _020_
*41 _021_
*42 _022_
*43 _023_
*44 _024_
*45 _025_
*46 _026_
*47 _027_
*48 _028_
*49 _029_
*50 _030_
*51 _031_
*52 _032_
*53 _033_
*54 _034_
*55 _035_
*56 _036_
*57 _037_
*58 _038_
*59 _039_
*60 _040_
*61 _041_
*62 _042_
*63 _043_
*64 _044_
*65 _045_
*66 _046_
*67 _047_
*68 _048_
*69 _049_
*70 _050_
*71 _051_
*72 _052_
*73 _053_
*74 _054_
*75 _055_
*76 _056_
*77 _057_
*78 _058_
*79 _059_
*80 _060_
*81 _061_
*82 _062_
*83 _063_
*84 _064_
*85 _065_
*86 _066_
*87 _067_
*88 _068_
*89 _069_
*90 _070_
*91 _071_
*92 _072_
*93 _073_
*94 _074_
*95 _075_
*96 _076_
*97 _077_
*98 _078_
*99 _079_
*100 _080_
*101 _081_
*102 _082_
*103 _083_
*104 _084_
*105 _085_
*106 _086_
*107 _087_
*108 _088_
*109 _089_
*110 _090_
*111 _091_
*112 _092_
*113 _093_
*114 _094_
*115 _095_
*116 _096_
*117 _097_
*118 _098_
*119 _099_
*120 _100_
*121 _101_
*122 _102_
*123 _103_
*124 _104_
*125 _105_
*126 _106_
*127 _107_
*128 _108_
*129 _109_
*130 _110_
*131 _111_
*132 _112_
*133 _113_
*134 _114_
*135 _115_
*136 _116_
*137 _117_
*138 _118_
*139 _119_
*140 _120_
*141 _121_
*142 _122_
*143 _123_
*144 _124_
*145 _125_
*146 _126_
*147 _127_
*148 _128_
*149 _129_
*150 _130_
*151 _131_
*152 _132_
*153 _133_
*154 _134_
*155 _135_
*156 _136_
*157 _137_
*158 _138_
*159 _139_
*160 _140_
*161 _141_
*162 _142_
*163 _143_
*164 _144_
*165 _145_
*166 _146_
*167 _147_
*168 _148_
*169 _149_
*170 _150_
*171 _151_
*172 _152_
*173 _153_
*174 _154_
*175 _155_
*176 _156_
*177 _157_
*178 clknet_0_clk
*179 clknet_2_0__leaf_clk
*180 clknet_2_1__leaf_clk
*181 clknet_2_2__leaf_clk
*182 clknet_2_3__leaf_clk
*183 counter\.count\[0\]
*184 counter\.count\[1\]
*185 counter\.count\[2\]
*186 counter\.count\[3\]
*187 counter\.one_second_counter\[0\]
*188 counter\.one_second_counter\[10\]
*189 counter\.one_second_counter\[11\]
*190 counter\.one_second_counter\[12\]
*191 counter\.one_second_counter\[13\]
*192 counter\.one_second_counter\[14\]
*193 counter\.one_second_counter\[15\]
*194 counter\.one_second_counter\[16\]
*195 counter\.one_second_counter\[17\]
*196 counter\.one_second_counter\[18\]
*197 counter\.one_second_counter\[19\]
*198 counter\.one_second_counter\[1\]
*199 counter\.one_second_counter\[20\]
*200 counter\.one_second_counter\[21\]
*201 counter\.one_second_counter\[22\]
*202 counter\.one_second_counter\[23\]
*203 counter\.one_second_counter\[24\]
*204 counter\.one_second_counter\[25\]
*205 counter\.one_second_counter\[26\]
*206 counter\.one_second_counter\[2\]
*207 counter\.one_second_counter\[3\]
*208 counter\.one_second_counter\[4\]
*209 counter\.one_second_counter\[5\]
*210 counter\.one_second_counter\[6\]
*211 counter\.one_second_counter\[7\]
*212 counter\.one_second_counter\[8\]
*213 counter\.one_second_counter\[9\]
*214 counter\.one_second_enable
*215 net1
*216 net2
*217 net3
*218 net4
*219 net5
*220 net6
*221 net7
*222 net8
*223 ANTENNA_1
*224 ANTENNA_2
*225 ANTENNA_3
*226 FILLER_0_0_110
*227 FILLER_0_0_113
*228 FILLER_0_0_125
*229 FILLER_0_0_137
*230 FILLER_0_0_141
*231 FILLER_0_0_15
*232 FILLER_0_0_153
*233 FILLER_0_0_165
*234 FILLER_0_0_169
*235 FILLER_0_0_181
*236 FILLER_0_0_27
*237 FILLER_0_0_29
*238 FILLER_0_0_3
*239 FILLER_0_0_45
*240 FILLER_0_0_53
*241 FILLER_0_0_57
*242 FILLER_0_0_67
*243 FILLER_0_0_79
*244 FILLER_0_0_83
*245 FILLER_0_0_85
*246 FILLER_0_0_98
*247 FILLER_0_10_105
*248 FILLER_0_10_110
*249 FILLER_0_10_118
*250 FILLER_0_10_141
*251 FILLER_0_10_15
*252 FILLER_0_10_153
*253 FILLER_0_10_165
*254 FILLER_0_10_177
*255 FILLER_0_10_185
*256 FILLER_0_10_27
*257 FILLER_0_10_29
*258 FILLER_0_10_3
*259 FILLER_0_10_41
*260 FILLER_0_10_45
*261 FILLER_0_10_69
*262 FILLER_0_10_81
*263 FILLER_0_10_85
*264 FILLER_0_10_97
*265 FILLER_0_11_107
*266 FILLER_0_11_111
*267 FILLER_0_11_113
*268 FILLER_0_11_130
*269 FILLER_0_11_142
*270 FILLER_0_11_146
*271 FILLER_0_11_15
*272 FILLER_0_11_153
*273 FILLER_0_11_162
*274 FILLER_0_11_169
*275 FILLER_0_11_178
*276 FILLER_0_11_27
*277 FILLER_0_11_3
*278 FILLER_0_11_39
*279 FILLER_0_11_54
*280 FILLER_0_11_84
*281 FILLER_0_11_9
*282 FILLER_0_12_105
*283 FILLER_0_12_113
*284 FILLER_0_12_139
*285 FILLER_0_12_141
*286 FILLER_0_12_15
*287 FILLER_0_12_153
*288 FILLER_0_12_165
*289 FILLER_0_12_177
*290 FILLER_0_12_181
*291 FILLER_0_12_188
*292 FILLER_0_12_26
*293 FILLER_0_12_29
*294 FILLER_0_12_3
*295 FILLER_0_12_41
*296 FILLER_0_12_53
*297 FILLER_0_12_77
*298 FILLER_0_12_83
*299 FILLER_0_12_90
*300 FILLER_0_12_98
*301 FILLER_0_13_107
*302 FILLER_0_13_111
*303 FILLER_0_13_133
*304 FILLER_0_13_141
*305 FILLER_0_13_148
*306 FILLER_0_13_154
*307 FILLER_0_13_166
*308 FILLER_0_13_169
*309 FILLER_0_13_21
*310 FILLER_0_13_3
*311 FILLER_0_13_33
*312 FILLER_0_13_45
*313 FILLER_0_13_53
*314 FILLER_0_13_57
*315 FILLER_0_13_69
*316 FILLER_0_13_75
*317 FILLER_0_13_79
*318 FILLER_0_13_83
*319 FILLER_0_14_112
*320 FILLER_0_14_125
*321 FILLER_0_14_136
*322 FILLER_0_14_141
*323 FILLER_0_14_15
*324 FILLER_0_14_153
*325 FILLER_0_14_165
*326 FILLER_0_14_177
*327 FILLER_0_14_183
*328 FILLER_0_14_27
*329 FILLER_0_14_29
*330 FILLER_0_14_3
*331 FILLER_0_14_41
*332 FILLER_0_14_49
*333 FILLER_0_14_57
*334 FILLER_0_14_69
*335 FILLER_0_14_73
*336 FILLER_0_14_77
*337 FILLER_0_14_83
*338 FILLER_0_14_85
*339 FILLER_0_14_97
*340 FILLER_0_15_10
*341 FILLER_0_15_107
*342 FILLER_0_15_111
*343 FILLER_0_15_113
*344 FILLER_0_15_121
*345 FILLER_0_15_146
*346 FILLER_0_15_158
*347 FILLER_0_15_166
*348 FILLER_0_15_169
*349 FILLER_0_15_176
*350 FILLER_0_15_188
*351 FILLER_0_15_22
*352 FILLER_0_15_3
*353 FILLER_0_15_34
*354 FILLER_0_15_46
*355 FILLER_0_15_54
*356 FILLER_0_15_57
*357 FILLER_0_15_62
*358 FILLER_0_15_74
*359 FILLER_0_16_109
*360 FILLER_0_16_113
*361 FILLER_0_16_125
*362 FILLER_0_16_137
*363 FILLER_0_16_141
*364 FILLER_0_16_15
*365 FILLER_0_16_153
*366 FILLER_0_16_165
*367 FILLER_0_16_177
*368 FILLER_0_16_183
*369 FILLER_0_16_27
*370 FILLER_0_16_29
*371 FILLER_0_16_3
*372 FILLER_0_16_41
*373 FILLER_0_16_53
*374 FILLER_0_16_61
*375 FILLER_0_16_85
*376 FILLER_0_16_97
*377 FILLER_0_17_103
*378 FILLER_0_17_111
*379 FILLER_0_17_118
*380 FILLER_0_17_12
*381 FILLER_0_17_130
*382 FILLER_0_17_142
*383 FILLER_0_17_154
*384 FILLER_0_17_163
*385 FILLER_0_17_167
*386 FILLER_0_17_169
*387 FILLER_0_17_181
*388 FILLER_0_17_189
*389 FILLER_0_17_20
*390 FILLER_0_17_28
*391 FILLER_0_17_3
*392 FILLER_0_17_40
*393 FILLER_0_17_52
*394 FILLER_0_17_57
*395 FILLER_0_17_63
*396 FILLER_0_17_67
*397 FILLER_0_17_79
*398 FILLER_0_17_91
*399 FILLER_0_18_109
*400 FILLER_0_18_120
*401 FILLER_0_18_126
*402 FILLER_0_18_130
*403 FILLER_0_18_138
*404 FILLER_0_18_141
*405 FILLER_0_18_153
*406 FILLER_0_18_157
*407 FILLER_0_18_169
*408 FILLER_0_18_181
*409 FILLER_0_18_19
*410 FILLER_0_18_27
*411 FILLER_0_18_29
*412 FILLER_0_18_3
*413 FILLER_0_18_48
*414 FILLER_0_18_60
*415 FILLER_0_18_72
*416 FILLER_0_18_85
*417 FILLER_0_18_97
*418 FILLER_0_19_102
*419 FILLER_0_19_110
*420 FILLER_0_19_113
*421 FILLER_0_19_15
*422 FILLER_0_19_162
*423 FILLER_0_19_169
*424 FILLER_0_19_181
*425 FILLER_0_19_189
*426 FILLER_0_19_24
*427 FILLER_0_19_3
*428 FILLER_0_19_36
*429 FILLER_0_19_48
*430 FILLER_0_19_81
*431 FILLER_0_19_85
*432 FILLER_0_19_90
*433 FILLER_0_1_110
*434 FILLER_0_1_121
*435 FILLER_0_1_129
*436 FILLER_0_1_13
*437 FILLER_0_1_135
*438 FILLER_0_1_147
*439 FILLER_0_1_155
*440 FILLER_0_1_21
*441 FILLER_0_1_26
*442 FILLER_0_1_3
*443 FILLER_0_1_38
*444 FILLER_0_1_44
*445 FILLER_0_1_84
*446 FILLER_0_1_92
*447 FILLER_0_1_98
*448 FILLER_0_20_104
*449 FILLER_0_20_116
*450 FILLER_0_20_128
*451 FILLER_0_20_141
*452 FILLER_0_20_15
*453 FILLER_0_20_165
*454 FILLER_0_20_177
*455 FILLER_0_20_185
*456 FILLER_0_20_27
*457 FILLER_0_20_29
*458 FILLER_0_20_3
*459 FILLER_0_20_41
*460 FILLER_0_20_53
*461 FILLER_0_20_65
*462 FILLER_0_20_77
*463 FILLER_0_20_83
*464 FILLER_0_20_85
*465 FILLER_0_20_92
*466 FILLER_0_21_109
*467 FILLER_0_21_113
*468 FILLER_0_21_125
*469 FILLER_0_21_137
*470 FILLER_0_21_149
*471 FILLER_0_21_161
*472 FILLER_0_21_167
*473 FILLER_0_21_169
*474 FILLER_0_21_181
*475 FILLER_0_21_189
*476 FILLER_0_21_34
*477 FILLER_0_21_42
*478 FILLER_0_21_48
*479 FILLER_0_21_57
*480 FILLER_0_21_61
*481 FILLER_0_21_7
*482 FILLER_0_21_73
*483 FILLER_0_21_85
*484 FILLER_0_22_124
*485 FILLER_0_22_136
*486 FILLER_0_22_146
*487 FILLER_0_22_158
*488 FILLER_0_22_183
*489 FILLER_0_22_29
*490 FILLER_0_22_3
*491 FILLER_0_22_41
*492 FILLER_0_22_68
*493 FILLER_0_22_80
*494 FILLER_0_22_90
*495 FILLER_0_22_94
*496 FILLER_0_23_105
*497 FILLER_0_23_11
*498 FILLER_0_23_111
*499 FILLER_0_23_113
*500 FILLER_0_23_125
*501 FILLER_0_23_137
*502 FILLER_0_23_149
*503 FILLER_0_23_153
*504 FILLER_0_23_16
*505 FILLER_0_23_165
*506 FILLER_0_23_169
*507 FILLER_0_23_181
*508 FILLER_0_23_187
*509 FILLER_0_23_28
*510 FILLER_0_23_3
*511 FILLER_0_23_39
*512 FILLER_0_23_47
*513 FILLER_0_23_57
*514 FILLER_0_23_61
*515 FILLER_0_24_104
*516 FILLER_0_24_116
*517 FILLER_0_24_132
*518 FILLER_0_24_141
*519 FILLER_0_24_153
*520 FILLER_0_24_161
*521 FILLER_0_24_178
*522 FILLER_0_24_188
*523 FILLER_0_24_19
*524 FILLER_0_24_27
*525 FILLER_0_24_29
*526 FILLER_0_24_35
*527 FILLER_0_24_47
*528 FILLER_0_24_7
*529 FILLER_0_24_92
*530 FILLER_0_25_107
*531 FILLER_0_25_111
*532 FILLER_0_25_136
*533 FILLER_0_25_148
*534 FILLER_0_25_160
*535 FILLER_0_25_172
*536 FILLER_0_25_180
*537 FILLER_0_25_186
*538 FILLER_0_25_26
*539 FILLER_0_25_51
*540 FILLER_0_25_55
*541 FILLER_0_25_57
*542 FILLER_0_25_61
*543 FILLER_0_25_70
*544 FILLER_0_25_76
*545 FILLER_0_25_88
*546 FILLER_0_26_115
*547 FILLER_0_26_127
*548 FILLER_0_26_139
*549 FILLER_0_26_141
*550 FILLER_0_26_145
*551 FILLER_0_26_15
*552 FILLER_0_26_150
*553 FILLER_0_26_156
*554 FILLER_0_26_188
*555 FILLER_0_26_22
*556 FILLER_0_26_29
*557 FILLER_0_26_3
*558 FILLER_0_26_41
*559 FILLER_0_26_53
*560 FILLER_0_26_66
*561 FILLER_0_26_74
*562 FILLER_0_26_83
*563 FILLER_0_26_85
*564 FILLER_0_26_99
*565 FILLER_0_27_113
*566 FILLER_0_27_125
*567 FILLER_0_27_137
*568 FILLER_0_27_141
*569 FILLER_0_27_15
*570 FILLER_0_27_154
*571 FILLER_0_27_166
*572 FILLER_0_27_169
*573 FILLER_0_27_181
*574 FILLER_0_27_27
*575 FILLER_0_27_29
*576 FILLER_0_27_3
*577 FILLER_0_27_41
*578 FILLER_0_27_78
*579 FILLER_0_27_82
*580 FILLER_0_27_85
*581 FILLER_0_2_109
*582 FILLER_0_2_118
*583 FILLER_0_2_139
*584 FILLER_0_2_144
*585 FILLER_0_2_15
*586 FILLER_0_2_156
*587 FILLER_0_2_168
*588 FILLER_0_2_174
*589 FILLER_0_2_186
*590 FILLER_0_2_27
*591 FILLER_0_2_3
*592 FILLER_0_2_40
*593 FILLER_0_2_52
*594 FILLER_0_2_60
*595 FILLER_0_2_85
*596 FILLER_0_2_97
*597 FILLER_0_3_102
*598 FILLER_0_3_110
*599 FILLER_0_3_126
*600 FILLER_0_3_13
*601 FILLER_0_3_134
*602 FILLER_0_3_149
*603 FILLER_0_3_165
*604 FILLER_0_3_169
*605 FILLER_0_3_181
*606 FILLER_0_3_189
*607 FILLER_0_3_3
*608 FILLER_0_3_39
*609 FILLER_0_3_51
*610 FILLER_0_3_55
*611 FILLER_0_3_57
*612 FILLER_0_3_65
*613 FILLER_0_3_70
*614 FILLER_0_3_78
*615 FILLER_0_3_9
*616 FILLER_0_3_90
*617 FILLER_0_4_122
*618 FILLER_0_4_134
*619 FILLER_0_4_15
*620 FILLER_0_4_152
*621 FILLER_0_4_164
*622 FILLER_0_4_176
*623 FILLER_0_4_184
*624 FILLER_0_4_27
*625 FILLER_0_4_29
*626 FILLER_0_4_3
*627 FILLER_0_4_37
*628 FILLER_0_4_42
*629 FILLER_0_4_54
*630 FILLER_0_4_67
*631 FILLER_0_4_71
*632 FILLER_0_4_81
*633 FILLER_0_4_85
*634 FILLER_0_4_97
*635 FILLER_0_5_102
*636 FILLER_0_5_110
*637 FILLER_0_5_113
*638 FILLER_0_5_122
*639 FILLER_0_5_134
*640 FILLER_0_5_146
*641 FILLER_0_5_15
*642 FILLER_0_5_158
*643 FILLER_0_5_162
*644 FILLER_0_5_166
*645 FILLER_0_5_169
*646 FILLER_0_5_181
*647 FILLER_0_5_189
*648 FILLER_0_5_27
*649 FILLER_0_5_3
*650 FILLER_0_5_36
*651 FILLER_0_5_40
*652 FILLER_0_5_52
*653 FILLER_0_5_57
*654 FILLER_0_5_74
*655 FILLER_0_5_86
*656 FILLER_0_5_94
*657 FILLER_0_6_11
*658 FILLER_0_6_110
*659 FILLER_0_6_122
*660 FILLER_0_6_134
*661 FILLER_0_6_141
*662 FILLER_0_6_153
*663 FILLER_0_6_16
*664 FILLER_0_6_161
*665 FILLER_0_6_165
*666 FILLER_0_6_173
*667 FILLER_0_6_177
*668 FILLER_0_6_185
*669 FILLER_0_6_20
*670 FILLER_0_6_24
*671 FILLER_0_6_29
*672 FILLER_0_6_41
*673 FILLER_0_6_45
*674 FILLER_0_6_57
*675 FILLER_0_6_69
*676 FILLER_0_6_81
*677 FILLER_0_6_85
*678 FILLER_0_6_98
*679 FILLER_0_7_102
*680 FILLER_0_7_110
*681 FILLER_0_7_113
*682 FILLER_0_7_125
*683 FILLER_0_7_142
*684 FILLER_0_7_15
*685 FILLER_0_7_154
*686 FILLER_0_7_166
*687 FILLER_0_7_169
*688 FILLER_0_7_181
*689 FILLER_0_7_189
*690 FILLER_0_7_27
*691 FILLER_0_7_3
*692 FILLER_0_7_54
*693 FILLER_0_7_57
*694 FILLER_0_7_61
*695 FILLER_0_7_83
*696 FILLER_0_7_90
*697 FILLER_0_8_111
*698 FILLER_0_8_117
*699 FILLER_0_8_124
*700 FILLER_0_8_13
*701 FILLER_0_8_136
*702 FILLER_0_8_141
*703 FILLER_0_8_147
*704 FILLER_0_8_159
*705 FILLER_0_8_171
*706 FILLER_0_8_183
*707 FILLER_0_8_23
*708 FILLER_0_8_27
*709 FILLER_0_8_29
*710 FILLER_0_8_3
*711 FILLER_0_8_49
*712 FILLER_0_8_61
*713 FILLER_0_8_74
*714 FILLER_0_8_82
*715 FILLER_0_8_85
*716 FILLER_0_9_103
*717 FILLER_0_9_111
*718 FILLER_0_9_113
*719 FILLER_0_9_121
*720 FILLER_0_9_126
*721 FILLER_0_9_135
*722 FILLER_0_9_142
*723 FILLER_0_9_15
*724 FILLER_0_9_153
*725 FILLER_0_9_165
*726 FILLER_0_9_177
*727 FILLER_0_9_187
*728 FILLER_0_9_27
*729 FILLER_0_9_3
*730 FILLER_0_9_32
*731 FILLER_0_9_44
*732 FILLER_0_9_57
*733 FILLER_0_9_69
*734 FILLER_0_9_81
*735 PHY_EDGE_ROW_0_Left_28
*736 PHY_EDGE_ROW_0_Right_0
*737 PHY_EDGE_ROW_10_Left_38
*738 PHY_EDGE_ROW_10_Right_10
*739 PHY_EDGE_ROW_11_Left_39
*740 PHY_EDGE_ROW_11_Right_11
*741 PHY_EDGE_ROW_12_Left_40
*742 PHY_EDGE_ROW_12_Right_12
*743 PHY_EDGE_ROW_13_Left_41
*744 PHY_EDGE_ROW_13_Right_13
*745 PHY_EDGE_ROW_14_Left_42
*746 PHY_EDGE_ROW_14_Right_14
*747 PHY_EDGE_ROW_15_Left_43
*748 PHY_EDGE_ROW_15_Right_15
*749 PHY_EDGE_ROW_16_Left_44
*750 PHY_EDGE_ROW_16_Right_16
*751 PHY_EDGE_ROW_17_Left_45
*752 PHY_EDGE_ROW_17_Right_17
*753 PHY_EDGE_ROW_18_Left_46
*754 PHY_EDGE_ROW_18_Right_18
*755 PHY_EDGE_ROW_19_Left_47
*756 PHY_EDGE_ROW_19_Right_19
*757 PHY_EDGE_ROW_1_Left_29
*758 PHY_EDGE_ROW_1_Right_1
*759 PHY_EDGE_ROW_20_Left_48
*760 PHY_EDGE_ROW_20_Right_20
*761 PHY_EDGE_ROW_21_Left_49
*762 PHY_EDGE_ROW_21_Right_21
*763 PHY_EDGE_ROW_22_Left_50
*764 PHY_EDGE_ROW_22_Right_22
*765 PHY_EDGE_ROW_23_Left_51
*766 PHY_EDGE_ROW_23_Right_23
*767 PHY_EDGE_ROW_24_Left_52
*768 PHY_EDGE_ROW_24_Right_24
*769 PHY_EDGE_ROW_25_Left_53
*770 PHY_EDGE_ROW_25_Right_25
*771 PHY_EDGE_ROW_26_Left_54
*772 PHY_EDGE_ROW_26_Right_26
*773 PHY_EDGE_ROW_27_Left_55
*774 PHY_EDGE_ROW_27_Right_27
*775 PHY_EDGE_ROW_2_Left_30
*776 PHY_EDGE_ROW_2_Right_2
*777 PHY_EDGE_ROW_3_Left_31
*778 PHY_EDGE_ROW_3_Right_3
*779 PHY_EDGE_ROW_4_Left_32
*780 PHY_EDGE_ROW_4_Right_4
*781 PHY_EDGE_ROW_5_Left_33
*782 PHY_EDGE_ROW_5_Right_5
*783 PHY_EDGE_ROW_6_Left_34
*784 PHY_EDGE_ROW_6_Right_6
*785 PHY_EDGE_ROW_7_Left_35
*786 PHY_EDGE_ROW_7_Right_7
*787 PHY_EDGE_ROW_8_Left_36
*788 PHY_EDGE_ROW_8_Right_8
*789 PHY_EDGE_ROW_9_Left_37
*790 PHY_EDGE_ROW_9_Right_9
*791 TAP_TAPCELL_ROW_0_56
*792 TAP_TAPCELL_ROW_0_57
*793 TAP_TAPCELL_ROW_0_58
*794 TAP_TAPCELL_ROW_0_59
*795 TAP_TAPCELL_ROW_0_60
*796 TAP_TAPCELL_ROW_0_61
*797 TAP_TAPCELL_ROW_10_89
*798 TAP_TAPCELL_ROW_10_90
*799 TAP_TAPCELL_ROW_10_91
*800 TAP_TAPCELL_ROW_11_92
*801 TAP_TAPCELL_ROW_11_93
*802 TAP_TAPCELL_ROW_11_94
*803 TAP_TAPCELL_ROW_12_95
*804 TAP_TAPCELL_ROW_12_96
*805 TAP_TAPCELL_ROW_12_97
*806 TAP_TAPCELL_ROW_13_100
*807 TAP_TAPCELL_ROW_13_98
*808 TAP_TAPCELL_ROW_13_99
*809 TAP_TAPCELL_ROW_14_101
*810 TAP_TAPCELL_ROW_14_102
*811 TAP_TAPCELL_ROW_14_103
*812 TAP_TAPCELL_ROW_15_104
*813 TAP_TAPCELL_ROW_15_105
*814 TAP_TAPCELL_ROW_15_106
*815 TAP_TAPCELL_ROW_16_107
*816 TAP_TAPCELL_ROW_16_108
*817 TAP_TAPCELL_ROW_16_109
*818 TAP_TAPCELL_ROW_17_110
*819 TAP_TAPCELL_ROW_17_111
*820 TAP_TAPCELL_ROW_17_112
*821 TAP_TAPCELL_ROW_18_113
*822 TAP_TAPCELL_ROW_18_114
*823 TAP_TAPCELL_ROW_18_115
*824 TAP_TAPCELL_ROW_19_116
*825 TAP_TAPCELL_ROW_19_117
*826 TAP_TAPCELL_ROW_19_118
*827 TAP_TAPCELL_ROW_1_62
*828 TAP_TAPCELL_ROW_1_63
*829 TAP_TAPCELL_ROW_1_64
*830 TAP_TAPCELL_ROW_20_119
*831 TAP_TAPCELL_ROW_20_120
*832 TAP_TAPCELL_ROW_20_121
*833 TAP_TAPCELL_ROW_21_122
*834 TAP_TAPCELL_ROW_21_123
*835 TAP_TAPCELL_ROW_21_124
*836 TAP_TAPCELL_ROW_22_125
*837 TAP_TAPCELL_ROW_22_126
*838 TAP_TAPCELL_ROW_22_127
*839 TAP_TAPCELL_ROW_23_128
*840 TAP_TAPCELL_ROW_23_129
*841 TAP_TAPCELL_ROW_23_130
*842 TAP_TAPCELL_ROW_24_131
*843 TAP_TAPCELL_ROW_24_132
*844 TAP_TAPCELL_ROW_24_133
*845 TAP_TAPCELL_ROW_25_134
*846 TAP_TAPCELL_ROW_25_135
*847 TAP_TAPCELL_ROW_25_136
*848 TAP_TAPCELL_ROW_26_137
*849 TAP_TAPCELL_ROW_26_138
*850 TAP_TAPCELL_ROW_26_139
*851 TAP_TAPCELL_ROW_27_140
*852 TAP_TAPCELL_ROW_27_141
*853 TAP_TAPCELL_ROW_27_142
*854 TAP_TAPCELL_ROW_27_143
*855 TAP_TAPCELL_ROW_27_144
*856 TAP_TAPCELL_ROW_27_145
*857 TAP_TAPCELL_ROW_2_65
*858 TAP_TAPCELL_ROW_2_66
*859 TAP_TAPCELL_ROW_2_67
*860 TAP_TAPCELL_ROW_3_68
*861 TAP_TAPCELL_ROW_3_69
*862 TAP_TAPCELL_ROW_3_70
*863 TAP_TAPCELL_ROW_4_71
*864 TAP_TAPCELL_ROW_4_72
*865 TAP_TAPCELL_ROW_4_73
*866 TAP_TAPCELL_ROW_5_74
*867 TAP_TAPCELL_ROW_5_75
*868 TAP_TAPCELL_ROW_5_76
*869 TAP_TAPCELL_ROW_6_77
*870 TAP_TAPCELL_ROW_6_78
*871 TAP_TAPCELL_ROW_6_79
*872 TAP_TAPCELL_ROW_7_80
*873 TAP_TAPCELL_ROW_7_81
*874 TAP_TAPCELL_ROW_7_82
*875 TAP_TAPCELL_ROW_8_83
*876 TAP_TAPCELL_ROW_8_84
*877 TAP_TAPCELL_ROW_8_85
*878 TAP_TAPCELL_ROW_9_86
*879 TAP_TAPCELL_ROW_9_87
*880 TAP_TAPCELL_ROW_9_88
*881 TopModule_10
*882 TopModule_11
*883 TopModule_12
*884 TopModule_13
*885 TopModule_14
*886 TopModule_15
*887 TopModule_16
*888 TopModule_9
*889 _158_
*890 _159_
*891 _160_
*892 _161_
*893 _162_
*894 _163_
*895 _164_
*896 _165_
*897 _166_
*898 _167_
*899 _168_
*900 _169_
*901 _170_
*902 _171_
*903 _172_
*904 _173_
*905 _174_
*906 _175_
*907 _176_
*908 _177_
*909 _178_
*910 _179_
*911 _180_
*912 _181_
*913 _182_
*914 _183_
*915 _184_
*916 _185_
*917 _186_
*918 _187_
*919 _188_
*920 _189_
*921 _190_
*922 _191_
*923 _192_
*924 _193_
*925 _194_
*926 _195_
*927 _196_
*928 _197_
*929 _198_
*930 _199_
*931 _200_
*932 _201_
*933 _202_
*934 _203_
*935 _204_
*936 _205_
*937 _206_
*938 _207_
*939 _208_
*940 _209_
*941 _210_
*942 _211_
*943 _212_
*944 _213_
*945 _214_
*946 _215_
*947 _216_
*948 _217_
*949 _218_
*950 _219_
*951 _220_
*952 _221_
*953 _222_
*954 _223_
*955 _224_
*956 _225_
*957 _226_
*958 _227_
*959 _228_
*960 _229_
*961 _230_
*962 _231_
*963 _232_
*964 _233_
*965 _234_
*966 _235_
*967 _236_
*968 _237_
*969 _238_
*970 _239_
*971 _240_
*972 _241_
*973 _242_
*974 _243_
*975 _244_
*976 _245_
*977 _246_
*978 _247_
*979 _248_
*980 _249_
*981 _250_
*982 _251_
*983 _252_
*984 _253_
*985 _254_
*986 _255_
*987 _256_
*988 _257_
*989 _258_
*990 _259_
*991 _260_
*992 _261_
*993 _262_
*994 _263_
*995 _264_
*996 _265_
*997 _266_
*998 _267_
*999 _268_
*1000 _269_
*1001 _270_
*1002 _271_
*1003 _272_
*1004 _273_
*1005 _274_
*1006 _275_
*1007 _276_
*1008 _277_
*1009 _278_
*1010 _279_
*1011 _280_
*1012 _281_
*1013 _282_
*1014 _283_
*1015 _284_
*1016 _285_
*1017 _286_
*1018 _287_
*1019 _288_
*1020 _289_
*1021 _290_
*1022 _291_
*1023 _292_
*1024 _293_
*1025 _294_
*1026 _295_
*1027 _296_
*1028 _297_
*1029 _298_
*1030 _299_
*1031 _300_
*1032 _301_
*1033 _302_
*1034 _303_
*1035 _304_
*1036 _305_
*1037 _306_
*1038 _307_
*1039 _308_
*1040 _309_
*1041 _310_
*1042 _311_
*1043 _312_
*1044 _313_
*1045 _314_
*1046 _315_
*1047 _316_
*1048 _317_
*1049 _318_
*1050 _319_
*1051 _320_
*1052 _321_
*1053 _322_
*1054 _323_
*1055 _324_
*1056 _325_
*1057 _326_
*1058 _327_
*1059 _328_
*1060 _329_
*1061 _330_
*1062 _331_
*1063 _332_
*1064 _333_
*1065 _334_
*1066 _335_
*1067 _336_
*1068 _337_
*1069 _338_
*1070 _339_
*1071 _340_
*1072 _341_
*1073 _342_
*1074 _343_
*1075 _344_
*1076 _345_
*1077 _346_
*1078 _347_
*1079 _348_
*1080 _349_
*1081 _350_
*1082 _351_
*1083 _352_
*1084 _353_
*1085 _362_
*1086 clkbuf_0_clk
*1087 clkbuf_2_0__f_clk
*1088 clkbuf_2_1__f_clk
*1089 clkbuf_2_2__f_clk
*1090 clkbuf_2_3__f_clk
*1091 clkload0
*1092 clkload1
*1093 clkload2
*1094 input1
*1095 output2
*1096 output3
*1097 output4
*1098 output5
*1099 output6
*1100 output7
*1101 output8

*PORTS
an[0] O
an[1] O
an[2] O
an[3] O
an[4] O
an[5] O
an[6] O
an[7] O
clk I
rst I
seg[0] O
seg[1] O
seg[2] O
seg[3] O
seg[4] O
seg[5] O
seg[6] O

*D_NET *3 0.000643623
*CONN
*P an[0] O
*I *888:LO O *D sky130_fd_sc_hd__conb_1
*CAP
1 an[0] 0.000321811
2 *888:LO 0.000321811
3 an[0] an[1] 0
*RES
1 *888:LO an[0] 19.4092 
*END

*D_NET *4 0.00061614
*CONN
*P an[1] O
*I *881:HI O *D sky130_fd_sc_hd__conb_1
*CAP
1 an[1] 0.000274507
2 *881:HI 0.000274507
3 an[1] an[2] 0
4 an[1] *213:12 6.71264e-05
5 an[0] an[1] 0
*RES
1 *881:HI an[1] 18.8021 
*END

*D_NET *5 0.000974208
*CONN
*P an[2] O
*I *882:HI O *D sky130_fd_sc_hd__conb_1
*CAP
1 an[2] 0.00046358
2 *882:HI 0.00046358
3 an[2] an[3] 0
4 an[2] *102:45 0
5 an[2] *116:34 4.70487e-05
6 an[1] an[2] 0
*RES
1 *882:HI an[2] 18.5553 
*END

*D_NET *6 0.000562898
*CONN
*P an[3] O
*I *883:HI O *D sky130_fd_sc_hd__conb_1
*CAP
1 an[3] 0.000260236
2 *883:HI 0.000260236
3 an[3] an[4] 0
4 an[3] *69:10 2.06178e-05
5 an[3] *213:12 2.18087e-05
6 an[2] an[3] 0
*RES
1 *883:HI an[3] 18.1949 
*END

*D_NET *7 0.000549166
*CONN
*P an[4] O
*I *884:HI O *D sky130_fd_sc_hd__conb_1
*CAP
1 an[4] 0.00025337
2 *884:HI 0.00025337
3 an[4] an[5] 0
4 an[4] *69:10 2.06178e-05
5 an[4] *213:12 2.18087e-05
6 an[3] an[4] 0
*RES
1 *884:HI an[4] 18.1949 
*END

*D_NET *8 0.00053557
*CONN
*P an[5] O
*I *885:HI O *D sky130_fd_sc_hd__conb_1
*CAP
1 an[5] 0.000246374
2 *885:HI 0.000246374
3 an[5] an[6] 0
4 an[5] *69:10 2.06178e-05
5 an[5] *213:12 2.22043e-05
6 an[4] an[5] 0
*RES
1 *885:HI an[5] 18.1949 
*END

*D_NET *9 0.000593318
*CONN
*P an[6] O
*I *886:HI O *D sky130_fd_sc_hd__conb_1
*CAP
1 an[6] 0.000250603
2 *886:HI 0.000250603
3 an[6] an[7] 0
4 an[6] *69:10 4.50149e-05
5 an[6] *213:12 4.70981e-05
6 an[5] an[6] 0
*RES
1 *886:HI an[6] 18.4985 
*END

*D_NET *10 0.000803124
*CONN
*P an[7] O
*I *887:HI O *D sky130_fd_sc_hd__conb_1
*CAP
1 an[7] 0.000339098
2 *887:HI 0.000339098
3 an[7] seg[0] 0
4 an[7] *21:16 2.22043e-05
5 an[7] *102:51 2.06178e-05
6 an[7] *205:12 8.21056e-05
7 an[6] an[7] 0
*RES
1 *887:HI an[7] 18.4111 
*END

*D_NET *11 0.0138806
*CONN
*P clk I
*I *1086:A I *D sky130_fd_sc_hd__clkbuf_16
*CAP
1 clk 0.00485413
2 *1086:A 0.00485413
3 *1086:A *1005:B 5.56545e-05
4 *1086:A *1075:RESET_B 0
5 *1086:A *1078:RESET_B 0.000852144
6 *1086:A *26:16 0
7 *1086:A *38:26 0
8 *1086:A *43:24 0.00176476
9 *1086:A *76:14 0
10 *1086:A *131:22 0.000809917
11 *1086:A *159:22 4.22135e-06
12 *1086:A *160:18 0.000127701
13 *1086:A *166:59 7.45943e-05
14 *1086:A *176:118 0.000208187
15 *1086:A *196:18 0.000103262
16 *1086:A *205:30 0.000171879
*RES
1 clk *1086:A 37.8583 
*END

*D_NET *12 0.000626014
*CONN
*P rst I
*I *1094:A I *D sky130_fd_sc_hd__buf_2
*CAP
1 rst 0.000283386
2 *1094:A 0.000283386
3 *1094:A *1081:RESET_B 5.92419e-05
*RES
1 rst *1094:A 19.9443 
*END

*D_NET *13 0.000906886
*CONN
*P seg[0] O
*I *1095:X O *D sky130_fd_sc_hd__buf_1
*CAP
1 seg[0] 0.000423855
2 *1095:X 0.000423855
3 seg[0] seg[1] 0
4 seg[0] *920:A2 9.60337e-06
5 seg[0] *74:14 2.16899e-05
6 seg[0] *177:80 2.7883e-05
7 an[7] seg[0] 0
*RES
1 *1095:X seg[0] 18.5553 
*END

*D_NET *14 0.000547807
*CONN
*P seg[1] O
*I *1096:X O *D sky130_fd_sc_hd__buf_1
*CAP
1 seg[1] 0.00025269
2 *1096:X 0.00025269
3 seg[1] seg[2] 0
4 seg[1] *69:10 2.06178e-05
5 seg[1] *213:12 2.18087e-05
6 seg[0] seg[1] 0
*RES
1 *1096:X seg[1] 18.1949 
*END

*D_NET *15 0.000555799
*CONN
*P seg[2] O
*I *1097:X O *D sky130_fd_sc_hd__buf_1
*CAP
1 seg[2] 0.000256488
2 *1097:X 0.000256488
3 seg[2] seg[3] 0
4 seg[2] *69:10 2.06178e-05
5 seg[2] *213:12 2.22043e-05
6 seg[1] seg[2] 0
*RES
1 *1097:X seg[2] 18.1949 
*END

*D_NET *16 0.000512759
*CONN
*P seg[3] O
*I *1098:X O *D sky130_fd_sc_hd__buf_1
*CAP
1 seg[3] 0.00024607
2 *1098:X 0.00024607
3 seg[3] seg[4] 0
4 seg[3] *69:10 2.06178e-05
5 seg[2] seg[3] 0
*RES
1 *1098:X seg[3] 18.1949 
*END

*D_NET *17 0.00052828
*CONN
*P seg[4] O
*I *1099:X O *D sky130_fd_sc_hd__buf_1
*CAP
1 seg[4] 0.000236579
2 *1099:X 0.000236579
3 seg[4] seg[5] 0
4 seg[4] *1074:RESET_B 2.23092e-05
5 seg[4] *69:10 2.06178e-05
6 seg[4] *220:37 1.21955e-05
7 seg[3] seg[4] 0
*RES
1 *1099:X seg[4] 18.1949 
*END

*D_NET *18 0.00050866
*CONN
*P seg[5] O
*I *1100:X O *D sky130_fd_sc_hd__buf_1
*CAP
1 seg[5] 0.000244154
2 *1100:X 0.000244154
3 seg[5] seg[6] 0
4 seg[5] *1074:RESET_B 8.73272e-06
5 seg[5] *221:22 1.16198e-05
6 seg[4] seg[5] 0
*RES
1 *1100:X seg[5] 18.1949 
*END

*D_NET *19 0.000499884
*CONN
*P seg[6] O
*I *1101:X O *D sky130_fd_sc_hd__buf_1
*CAP
1 seg[6] 0.000243844
2 *1101:X 0.000243844
3 seg[6] *1101:A 1.21955e-05
4 seg[5] seg[6] 0
*RES
1 *1101:X seg[6] 18.1949 
*END

*D_NET *20 0.0501902
*CONN
*I *994:C1 I *D sky130_fd_sc_hd__a211oi_1
*I *933:A I *D sky130_fd_sc_hd__nor3_1
*I *978:A I *D sky130_fd_sc_hd__nor2_1
*I *972:C1 I *D sky130_fd_sc_hd__a211oi_1
*I *960:A I *D sky130_fd_sc_hd__nor3_1
*I *914:B I *D sky130_fd_sc_hd__nor2_1
*I *1053:D I *D sky130_fd_sc_hd__dfrtp_4
*I *1003:A I *D sky130_fd_sc_hd__nor2_1
*I *939:B1 I *D sky130_fd_sc_hd__a211oi_1
*I *997:A I *D sky130_fd_sc_hd__nor3_1
*I *913:Y O *D sky130_fd_sc_hd__clkinv_4
*CAP
1 *994:C1 0
2 *933:A 0.0010188
3 *978:A 3.63742e-05
4 *972:C1 0
5 *960:A 3.4312e-05
6 *914:B 0
7 *1053:D 0
8 *1003:A 0.000968691
9 *939:B1 0
10 *997:A 0.00139365
11 *913:Y 5.45384e-05
12 *20:195 0.00248603
13 *20:175 0.00223347
14 *20:152 0.00130216
15 *20:129 0.00148581
16 *20:104 0.00134298
17 *20:82 0.00242057
18 *20:58 0.0023277
19 *20:50 0.00202367
20 *20:22 0.0024412
21 *20:8 0.0016411
22 *933:A *916:A 0.00012502
23 *933:A *933:C 9.58181e-05
24 *933:A *80:18 0
25 *933:A *98:12 2.06791e-05
26 *933:A *161:14 0.000525654
27 *933:A *183:14 7.40249e-05
28 *933:A *198:33 0.00022511
29 *960:A *90:16 3.97677e-05
30 *960:A *214:98 9.41642e-05
31 *997:A *889:C 8.16554e-05
32 *997:A *952:A 0.000120348
33 *997:A *995:B 0.000821816
34 *997:A *997:B 4.84073e-05
35 *997:A *1062:RESET_B 0.000145999
36 *997:A *84:12 2.12647e-05
37 *997:A *109:10 0.000228821
38 *997:A *188:28 0.000160778
39 *997:A *188:63 8.61499e-05
40 *997:A *214:16 0.000260707
41 *1003:A *938:A 4.07654e-05
42 *1003:A *1003:B 0.000369327
43 *1003:A *1053:CLK 6.91411e-05
44 *1003:A *62:14 0.000599293
45 *1003:A *87:69 0.000533706
46 *1003:A *136:12 0.000535229
47 *1003:A *190:52 3.13297e-05
48 *20:8 *103:66 9.58126e-05
49 *20:8 *112:137 4.13496e-05
50 *20:8 *164:37 0.00017754
51 *20:22 *1010:A 0.000421525
52 *20:22 *1078:RESET_B 7.84967e-05
53 *20:22 *1079:RESET_B 6.8404e-05
54 *20:22 *1082:RESET_B 0.000470382
55 *20:22 *95:21 0.000390611
56 *20:22 *109:10 0.000615791
57 *20:22 *171:26 2.06112e-05
58 *20:22 *175:16 0.000471398
59 *20:22 *195:73 0
60 *20:22 *195:89 0
61 *20:22 *220:10 0
62 *20:50 *896:B1 8.64801e-05
63 *20:50 *95:21 0.000870433
64 *20:50 *190:20 9.71008e-05
65 *20:50 *220:10 0
66 *20:58 *1013:A 0.000684301
67 *20:58 *1053:CLK 8.63226e-05
68 *20:58 *190:52 9.25647e-05
69 *20:58 *208:8 0.000389665
70 *20:58 *214:16 0.000311295
71 *20:58 *214:41 0.000577495
72 *20:82 *896:B1 5.59687e-05
73 *20:82 *95:21 0.000202314
74 *20:82 *190:14 2.47108e-05
75 *20:104 *946:A 3.4846e-06
76 *20:104 *1093:A 5.65955e-05
77 *20:104 *1095:A 0.000146036
78 *20:104 *103:52 5.52646e-05
79 *20:104 *127:12 0.000519791
80 *20:104 *159:10 0.000530837
81 *20:104 *159:22 0.000733165
82 *20:104 *181:8 4.58194e-05
83 *20:104 *185:43 9.67754e-05
84 *20:104 *187:79 0.00105801
85 *20:104 *206:18 0.0011015
86 *20:129 *1066:D 0.000212386
87 *20:129 *43:24 0.000540902
88 *20:129 *95:21 0.000114356
89 *20:129 *95:32 0.000336361
90 *20:129 *122:18 0.000978384
91 *20:129 *169:8 9.58126e-05
92 *20:129 *178:14 0.000109582
93 *20:129 *183:61 0.00076785
94 *20:129 *190:14 2.3524e-05
95 *20:129 *203:60 9.41642e-05
96 *20:129 *205:30 0.000273464
97 *20:152 *972:A1 1.24368e-05
98 *20:152 *972:A2 0.000186616
99 *20:152 *1084:D 9.76435e-06
100 *20:152 *90:16 0.000433301
101 *20:152 *186:8 5.49544e-05
102 *20:152 *186:18 0.000312757
103 *20:152 *192:86 6.73707e-06
104 *20:152 *197:41 0.000508956
105 *20:152 *208:28 0.000257619
106 *20:152 *214:98 7.34839e-05
107 *20:175 *893:B 6.09762e-05
108 *20:175 *936:B 5.09696e-05
109 *20:175 *953:B1 0.000659896
110 *20:175 *972:A1 3.88665e-05
111 *20:175 *972:B1 2.56258e-05
112 *20:175 *993:A 0.000173383
113 *20:175 *994:B1 0.000107617
114 *20:175 *1084:D 0.000139215
115 *20:175 *27:26 2.35374e-05
116 *20:175 *83:28 0
117 *20:175 *87:32 0.000155959
118 *20:175 *122:18 0
119 *20:175 *189:33 0.00020259
120 *20:175 *195:28 0.000451808
121 *20:175 *197:64 0.000450124
122 *20:175 *201:34 4.41457e-05
123 *20:195 *927:A 6.86249e-05
124 *20:195 *977:A 5.96218e-06
125 *20:195 *978:B 0.000543484
126 *20:195 *1019:A 2.13884e-05
127 *20:195 *1075:D 0.000486578
128 *20:195 *92:14 0.00183219
*RES
1 *913:Y *20:8 15.5679 
2 *20:8 *20:22 35.1964 
3 *20:22 *997:A 42.7286 
4 *20:22 *939:B1 9.3 
5 *20:8 *20:50 11.9643 
6 *20:50 *20:58 28.5402 
7 *20:58 *1003:A 38.7598 
8 *20:58 *1053:D 9.3 
9 *20:50 *20:82 2.85714 
10 *20:82 *20:104 49.7857 
11 *20:104 *914:B 9.3 
12 *20:82 *20:129 41.3747 
13 *20:129 *960:A 10.2464 
14 *20:129 *20:152 22.5714 
15 *20:152 *972:C1 9.3 
16 *20:152 *20:175 28.6106 
17 *20:175 *20:195 35.6429 
18 *20:195 *978:A 9.83571 
19 *20:195 *933:A 38.175 
20 *20:175 *994:C1 9.3 
*END

*D_NET *21 0.0111633
*CONN
*I *1054:D I *D sky130_fd_sc_hd__dfrtp_4
*I *914:Y O *D sky130_fd_sc_hd__nor2_1
*CAP
1 *1054:D 0.00169011
2 *914:Y 0.000694177
3 *21:16 0.00238429
4 *1054:D *936:B 0.00178727
5 *1054:D *966:A 0.000278008
6 *1054:D *1033:A 0.000262504
7 *1054:D *1054:CLK 0.000421914
8 *1054:D *69:8 2.51343e-06
9 *1054:D *176:135 0.000219711
10 *1054:D *187:45 0.000192536
11 *21:16 *1042:A 0.000388793
12 *21:16 *102:51 0.00109693
13 *21:16 *177:80 0.000600519
14 *21:16 *177:89 0.00099959
15 *21:16 *187:79 5.66971e-05
16 *21:16 *213:12 6.55147e-05
17 an[7] *21:16 2.22043e-05
*RES
1 *914:Y *21:16 46.0321 
2 *21:16 *1054:D 43.925 
*END

*D_NET *22 0.0108293
*CONN
*I *1064:D I *D sky130_fd_sc_hd__dfrtp_4
*I *952:X O *D sky130_fd_sc_hd__buf_1
*CAP
1 *1064:D 0.000811381
2 *952:X 0.0018322
3 *22:14 0.00264358
4 *1064:D *1064:RESET_B 0
5 *1064:D *1067:RESET_B 0.00102619
6 *1064:D *37:10 1.66067e-05
7 *1064:D *50:28 0.000107807
8 *1064:D *112:30 0.0001365
9 *1064:D *175:63 0
10 *1064:D *175:80 0.000177812
11 *1064:D *215:18 0.00169251
12 *22:14 *944:A3 0.000940007
13 *22:14 *944:B1 0.0010321
14 *22:14 *952:A 0
15 *22:14 *1005:B 0.000159398
16 *22:14 *1078:RESET_B 6.24392e-05
17 *22:14 *94:10 0.000190805
18 *22:14 *105:16 0
*RES
1 *952:X *22:14 47.4942 
2 *22:14 *1064:D 38.6661 
*END

*D_NET *23 0.0178917
*CONN
*I *1065:D I *D sky130_fd_sc_hd__dfrtp_2
*I *957:X O *D sky130_fd_sc_hd__buf_1
*CAP
1 *1065:D 0
2 *957:X 0.0040146
3 *23:24 0.0040146
4 *23:24 *927:A 2.57188e-05
5 *23:24 *929:A 0.000533115
6 *23:24 *966:A 0.000369936
7 *23:24 *1011:A 0.000284866
8 *23:24 *1050:A 9.26931e-05
9 *23:24 *1068:D 9.82418e-05
10 *23:24 *30:10 6.58945e-05
11 *23:24 *36:26 0.00342307
12 *23:24 *50:28 0.00267209
13 *23:24 *78:30 0.000291514
14 *23:24 *86:43 0.000185687
15 *23:24 *86:51 0
16 *23:24 *101:18 0.00152093
17 *23:24 *115:14 2.34204e-05
18 *23:24 *116:34 0.000143602
19 *23:24 *119:41 2.18021e-05
20 *23:24 *208:28 3.99243e-05
21 *23:24 *208:34 7.00374e-05
*RES
1 *957:X *23:24 49.179 
2 *23:24 *1065:D 13.8 
*END

*D_NET *24 0.00347875
*CONN
*I *1066:D I *D sky130_fd_sc_hd__dfrtp_1
*I *960:Y O *D sky130_fd_sc_hd__nor3_1
*CAP
1 *1066:D 0.000626098
2 *960:Y 0.000626098
3 *1066:D *903:A 9.54798e-06
4 *1066:D *960:C 0.000163061
5 *1066:D *25:12 9.15842e-06
6 *1066:D *122:18 0.000152016
7 *1066:D *159:22 0.00111269
8 *1066:D *211:10 0.000567694
9 *20:129 *1066:D 0.000212386
*RES
1 *960:Y *1066:D 44.3679 
*END

*D_NET *25 0.00869882
*CONN
*I *1067:D I *D sky130_fd_sc_hd__dfrtp_4
*I *964:X O *D sky130_fd_sc_hd__clkbuf_1
*CAP
1 *1067:D 0.00153687
2 *964:X 0.00116119
3 *25:12 0.00269806
4 *1067:D *960:C 0.00155978
5 *1067:D *1067:CLK 0.000203317
6 *1067:D *90:16 0.00017985
7 *1067:D *191:22 4.27011e-05
8 *1067:D *203:98 1.96616e-05
9 *25:12 *1054:RESET_B 9.66977e-05
10 *25:12 *122:18 0.000251238
11 *25:12 *159:22 0.00011344
12 *25:12 *187:22 0.000735038
13 *25:12 *196:10 2.59355e-05
14 *25:12 *196:89 4.05926e-05
15 *25:12 *198:33 2.52927e-05
16 *1066:D *25:12 9.15842e-06
*RES
1 *964:X *25:12 34.6214 
2 *25:12 *1067:D 31.5321 
*END

*D_NET *26 0.0201269
*CONN
*I *1068:D I *D sky130_fd_sc_hd__dfrtp_2
*I *968:X O *D sky130_fd_sc_hd__buf_1
*CAP
1 *1068:D 0.00370536
2 *968:X 0.00192659
3 *26:16 0.00563195
4 *1068:D *935:A 0
5 *1068:D *935:B 2.08241e-05
6 *1068:D *939:A1 0.000145146
7 *1068:D *939:A2 0.000367522
8 *1068:D *949:B 0.000150637
9 *1068:D *1017:A2 0.000389516
10 *1068:D *1050:A 0.000785588
11 *1068:D *1074:RESET_B 0.000229322
12 *1068:D *27:26 0.00153798
13 *1068:D *63:14 0.000176469
14 *1068:D *78:30 0.000852328
15 *1068:D *108:16 0
16 *1068:D *126:47 0.000180306
17 *1068:D *175:16 0.00195186
18 *1068:D *184:16 6.63775e-05
19 *1068:D *192:18 7.58841e-05
20 *1068:D *221:22 0.000141688
21 *26:16 *939:A1 0
22 *26:16 *968:A 1.757e-05
23 *26:16 *1081:RESET_B 1.37255e-05
24 *26:16 *32:16 0
25 *26:16 *93:68 0.000729035
26 *26:16 *105:16 0.000930111
27 *26:16 *121:12 0
28 *26:16 *126:10 0
29 *26:16 *221:22 2.83284e-06
30 *1086:A *26:16 0
31 *23:24 *1068:D 9.82418e-05
*RES
1 *968:X *26:16 47.6564 
2 *26:16 *1068:D 31.4002 
*END

*D_NET *27 0.0160597
*CONN
*I *1069:D I *D sky130_fd_sc_hd__dfrtp_1
*I *972:Y O *D sky130_fd_sc_hd__a211oi_1
*CAP
1 *1069:D 0
2 *972:Y 0.00471882
3 *27:26 0.00471882
4 *27:26 *892:A 3.1412e-05
5 *27:26 *910:C 8.94491e-05
6 *27:26 *934:A 8.94491e-05
7 *27:26 *939:A2 0.000913826
8 *27:26 *972:B1 9.54798e-06
9 *27:26 *988:B 0.000298317
10 *27:26 *63:14 0.000146487
11 *27:26 *78:30 0.000707321
12 *27:26 *171:26 0.00109558
13 *27:26 *184:88 0.000947718
14 *27:26 *186:40 0.000339468
15 *27:26 *189:71 6.27272e-06
16 *27:26 *192:18 1.01912e-05
17 *27:26 *196:89 9.81006e-05
18 *27:26 *197:41 0.000235746
19 *27:26 *197:64 4.16548e-05
20 *1068:D *27:26 0.00153798
21 *20:175 *27:26 2.35374e-05
*RES
1 *972:Y *27:26 49.6741 
2 *27:26 *1069:D 9.3 
*END

*D_NET *28 0.00606626
*CONN
*I *1070:D I *D sky130_fd_sc_hd__dfrtp_4
*I *976:X O *D sky130_fd_sc_hd__clkbuf_1
*CAP
1 *1070:D 0
2 *976:X 0.00111934
3 *28:18 0.00111934
4 *28:18 *1070:CLK 0.000758768
5 *28:18 *44:10 0.00131732
6 *28:18 *84:39 0
7 *28:18 *103:24 0.0011786
8 *28:18 *103:38 0
9 *28:18 *176:118 0.000118752
10 *28:18 *189:61 0.000141376
11 *28:18 *192:61 0.000220935
12 *28:18 *214:72 9.18273e-05
*RES
1 *976:X *28:18 47.4964 
2 *28:18 *1070:D 9.3 
*END

*D_NET *29 0.0108003
*CONN
*I *1071:D I *D sky130_fd_sc_hd__dfrtp_4
*I *978:Y O *D sky130_fd_sc_hd__nor2_1
*CAP
1 *1071:D 0.0010802
2 *978:Y 0.000244351
3 *29:12 0.00309594
4 *29:10 0.00226009
5 *1071:D *1065:CLK 4.60232e-06
6 *1071:D *1071:CLK 9.18544e-05
7 *1071:D *44:10 2.5868e-05
8 *1071:D *71:12 0.000997821
9 *1071:D *142:16 0
10 *1071:D *176:141 0
11 *1071:D *182:17 1.25682e-05
12 *1071:D *182:28 6.56747e-05
13 *1071:D *209:66 0.000925155
14 *1071:D *214:72 3.47641e-06
15 *29:10 *35:10 0
16 *29:12 *148:54 0.000279063
17 *29:12 *152:28 0.000197389
18 *29:12 *201:78 0.00151629
*RES
1 *978:Y *29:10 22.675 
2 *29:10 *29:12 48.1786 
3 *29:12 *1071:D 41.4607 
*END

*D_NET *30 0.00649994
*CONN
*I *1072:D I *D sky130_fd_sc_hd__dfrtp_4
*I *981:X O *D sky130_fd_sc_hd__o221a_1
*CAP
1 *1072:D 0
2 *981:X 0.00102796
3 *30:10 0.00102796
4 *30:10 *901:A2 0
5 *30:10 *929:A 9.18777e-05
6 *30:10 *1038:A 0.00096982
7 *30:10 *1065:CLK 0.000285461
8 *30:10 *1076:RESET_B 7.54775e-05
9 *30:10 *67:16 5.42698e-05
10 *30:10 *152:28 0.000301554
11 *30:10 *158:14 0.000613811
12 *30:10 *186:40 0
13 *30:10 *192:86 0.000115882
14 *30:10 *197:64 0
15 *30:10 *197:81 0.00175591
16 *30:10 *199:41 0.000114068
17 *23:24 *30:10 6.58945e-05
*RES
1 *981:X *30:10 45.6571 
2 *30:10 *1072:D 13.8 
*END

*D_NET *31 0.0033536
*CONN
*I *1073:D I *D sky130_fd_sc_hd__dfrtp_2
*I *987:X O *D sky130_fd_sc_hd__clkbuf_1
*CAP
1 *1073:D 0.000985741
2 *987:X 0.000985741
3 *1073:D *1073:CLK 0.000495156
4 *1073:D *40:12 0.000191898
5 *1073:D *59:16 0.000193422
6 *1073:D *89:16 2.22618e-05
7 *1073:D *106:14 6.05161e-06
8 *1073:D *133:60 0.000473331
*RES
1 *987:X *1073:D 45.475 
*END

*D_NET *32 0.00925406
*CONN
*I *1055:D I *D sky130_fd_sc_hd__dfrtp_4
*I *918:X O *D sky130_fd_sc_hd__clkbuf_1
*CAP
1 *1055:D 0.000544493
2 *918:X 0.000645099
3 *32:16 0.00210887
4 *32:12 0.00220948
5 *1055:D *198:33 0.000386193
6 *32:12 *922:A 0.000181796
7 *32:12 *997:C 1.21258e-05
8 *32:12 *40:12 9.60875e-05
9 *32:12 *156:14 0.00012909
10 *32:16 *916:A 0
11 *32:16 *985:A 0.000154522
12 *32:16 *1081:RESET_B 0
13 *32:16 *100:10 0.00120274
14 *32:16 *105:16 0
15 *32:16 *121:12 0.00150808
16 *32:16 *155:18 7.54868e-05
17 *26:16 *32:16 0
*RES
1 *918:X *32:12 24.3357 
2 *32:12 *32:16 43.4821 
3 *32:16 *1055:D 16.4607 
*END

*D_NET *33 0.00313841
*CONN
*I *1074:D I *D sky130_fd_sc_hd__dfrtp_2
*I *991:X O *D sky130_fd_sc_hd__clkbuf_1
*CAP
1 *1074:D 0.000819706
2 *991:X 0.000819706
3 *1074:D *982:A3 8.56752e-05
4 *1074:D *1078:D 0.00064755
5 *1074:D *133:14 0.000301266
6 *1074:D *133:60 0.00017096
7 *1074:D *188:24 0.000293546
*RES
1 *991:X *1074:D 41.725 
*END

*D_NET *34 0.00302487
*CONN
*I *1075:D I *D sky130_fd_sc_hd__dfrtp_2
*I *994:Y O *D sky130_fd_sc_hd__a211oi_1
*CAP
1 *1075:D 0.000543567
2 *994:Y 0.000543567
3 *1075:D *927:A 3.19834e-05
4 *1075:D *927:B 4.63699e-05
5 *1075:D *1019:A 1.00375e-05
6 *1075:D *1022:A 5.33005e-05
7 *1075:D *1081:CLK 7.61932e-05
8 *1075:D *51:20 9.59497e-06
9 *1075:D *92:14 2.55889e-05
10 *1075:D *175:103 0.000437943
11 *1075:D *180:49 2.28499e-05
12 *1075:D *183:24 0.000737293
13 *20:195 *1075:D 0.000486578
*RES
1 *994:Y *1075:D 41.8143 
*END

*D_NET *35 0.0123821
*CONN
*I *1076:D I *D sky130_fd_sc_hd__dfrtp_2
*I *997:Y O *D sky130_fd_sc_hd__nor3_1
*CAP
1 *1076:D 0.000611989
2 *997:Y 4.85859e-05
3 *35:10 0.00253735
4 *35:8 0.00197395
5 *1076:D *1076:CLK 2.89114e-05
6 *1076:D *48:20 6.43523e-05
7 *1076:D *60:16 0.000534229
8 *35:8 *997:B 4.93118e-06
9 *35:10 *911:B1 0.000168853
10 *35:10 *944:A1 0.000110479
11 *35:10 *945:B 9.11806e-06
12 *35:10 *952:A 0.0013809
13 *35:10 *968:A 0.000317609
14 *35:10 *997:C 0.000549052
15 *35:10 *1005:A 0.000262655
16 *35:10 *1062:RESET_B 0.000112791
17 *35:10 *1078:RESET_B 8.19695e-05
18 *35:10 *73:12 0.00141766
19 *35:10 *80:18 0.000337698
20 *35:10 *92:14 0.000177025
21 *35:10 *99:18 8.5896e-05
22 *35:10 *101:18 1.24469e-05
23 *35:10 *102:14 9.47364e-06
24 *35:10 *133:79 0.000215622
25 *35:10 *176:71 0
26 *35:10 *183:14 0
27 *35:10 *190:52 5.19522e-06
28 *35:10 *194:49 0.000821703
29 *35:10 *198:33 7.7789e-05
30 *35:10 *200:16 0.000220306
31 *35:10 *200:35 1.12323e-05
32 *35:10 *212:25 5.28195e-05
33 *35:10 *213:28 0.000139537
34 *29:10 *35:10 0
*RES
1 *997:Y *35:8 14.3357 
2 *35:8 *35:10 60.5357 
3 *35:10 *1076:D 25.8357 
*END

*D_NET *36 0.0179717
*CONN
*I *1077:D I *D sky130_fd_sc_hd__dfrtp_1
*I *1000:X O *D sky130_fd_sc_hd__o211a_1
*CAP
1 *1077:D 0.000217784
2 *1000:X 0.00512553
3 *36:26 0.00534331
4 *1077:D *907:C 3.18174e-05
5 *1077:D *1077:RESET_B 0.000106812
6 *1077:D *83:28 0.000152811
7 *1077:D *118:30 3.69047e-06
8 *36:26 *951:C 0.000191324
9 *36:26 *993:C 0.000446113
10 *36:26 *1009:A1 8.4314e-05
11 *36:26 *83:28 2.9597e-05
12 *36:26 *86:51 0
13 *36:26 *102:45 0.00167616
14 *36:26 *112:96 0.000152624
15 *36:26 *112:117 0.000301742
16 *36:26 *119:41 2.21972e-05
17 *36:26 *129:26 1.0213e-05
18 *36:26 *131:22 0.000109549
19 *36:26 *160:18 7.35192e-05
20 *36:26 *162:28 9.21418e-06
21 *36:26 *167:18 0.000216557
22 *36:26 *168:14 2.01997e-05
23 *36:26 *187:22 0.000176964
24 *36:26 *197:41 4.65519e-05
25 *23:24 *36:26 0.00342307
*RES
1 *1000:X *36:26 47.2048 
2 *36:26 *1077:D 13.9429 
*END

*D_NET *37 0.0109154
*CONN
*I *1078:D I *D sky130_fd_sc_hd__dfrtp_4
*I *1003:Y O *D sky130_fd_sc_hd__nor2_1
*CAP
1 *1078:D 0.000867559
2 *1003:Y 0.0016515
3 *37:10 0.00251905
4 *1078:D *926:A 5.65955e-05
5 *1078:D *961:A 6.63007e-05
6 *1078:D *974:A 0.00029701
7 *1078:D *974:B 6.45178e-05
8 *1078:D *982:A3 0.000478343
9 *1078:D *138:14 0.00111159
10 *1078:D *148:10 3.22675e-05
11 *1078:D *166:59 0.000279812
12 *37:10 *938:A 0.00104969
13 *37:10 *987:A 0.000570419
14 *37:10 *40:12 0
15 *37:10 *59:16 0.000237171
16 *37:10 *112:30 0.000105282
17 *37:10 *162:54 0
18 *37:10 *175:63 0.00014478
19 *37:10 *183:141 0.000719356
20 *1064:D *37:10 1.66067e-05
21 *1074:D *1078:D 0.00064755
*RES
1 *1003:Y *37:10 45.8714 
2 *37:10 *1078:D 37.3357 
*END

*D_NET *38 0.0133431
*CONN
*I *1079:D I *D sky130_fd_sc_hd__dfrtp_2
*I *1007:X O *D sky130_fd_sc_hd__buf_1
*CAP
1 *1079:D 0.000285733
2 *1007:X 0.00521567
3 *38:26 0.0055014
4 *1079:D *1079:CLK 0.000261827
5 *38:26 *1017:A2 1.34923e-05
6 *38:26 *1075:RESET_B 0
7 *38:26 *1076:CLK 0.000110238
8 *38:26 *48:20 0.000112063
9 *38:26 *131:22 0.000219828
10 *38:26 *133:60 4.07424e-05
11 *38:26 *140:28 0.00123719
12 *38:26 *160:18 1.78124e-05
13 *38:26 *171:26 2.86383e-05
14 *38:26 *179:35 0.000143858
15 *38:26 *200:35 1.30843e-05
16 *38:26 *204:22 6.42122e-06
17 *38:26 *214:16 0.000135073
18 *1086:A *38:26 0
*RES
1 *1007:X *38:26 46.9203 
2 *38:26 *1079:D 14.0857 
*END

*D_NET *39 0.00800519
*CONN
*I *1080:D I *D sky130_fd_sc_hd__dfrtp_1
*I *1009:X O *D sky130_fd_sc_hd__o211a_1
*CAP
1 *1080:D 0.000917324
2 *1009:X 0.00073711
3 *39:8 0.00165443
4 *1080:D *920:B1 4.61213e-05
5 *1080:D *935:A 0
6 *1080:D *935:B 0.000761714
7 *1080:D *1095:A 0
8 *1080:D *117:37 0.000735006
9 *1080:D *210:34 0
10 *1080:D *217:14 0
11 *39:8 *900:A 0.00160889
12 *39:8 *963:A 0.000137561
13 *39:8 *1009:C1 8.41716e-05
14 *39:8 *112:141 0.000933318
15 *39:8 *177:117 4.27935e-05
16 *39:8 *177:123 0.000216755
17 *39:8 *202:30 0.000129991
*RES
1 *1009:X *39:8 34.4607 
2 *39:8 *1080:D 34.425 
*END

*D_NET *40 0.00751585
*CONN
*I *1056:D I *D sky130_fd_sc_hd__dfrtp_2
*I *922:X O *D sky130_fd_sc_hd__clkbuf_1
*CAP
1 *1056:D 0.000515944
2 *922:X 0.00104666
3 *40:12 0.00156261
4 *1056:D *897:B 0.000464722
5 *1056:D *1035:A 5.33005e-05
6 *1056:D *1091:A 0.000135028
7 *1056:D *63:14 3.54455e-05
8 *1056:D *84:29 2.42516e-05
9 *1056:D *127:12 0.00169036
10 *1056:D *183:77 9.33565e-05
11 *40:12 *922:A 0.000188159
12 *40:12 *987:A 0.000215531
13 *40:12 *59:16 0.000527345
14 *40:12 *81:16 8.91963e-06
15 *40:12 *84:12 0.000433644
16 *40:12 *162:54 0.00023259
17 *1073:D *40:12 0.000191898
18 *32:12 *40:12 9.60875e-05
19 *37:10 *40:12 0
*RES
1 *922:X *40:12 40.0857 
2 *40:12 *1056:D 25.8536 
*END

*D_NET *41 0.0123666
*CONN
*I *1057:D I *D sky130_fd_sc_hd__dfrtp_1
*I *925:X O *D sky130_fd_sc_hd__buf_1
*CAP
1 *1057:D 0.00187485
2 *925:X 0.000252156
3 *41:12 0.0034677
4 *41:8 0.00184501
5 *1057:D *963:B 0.000219289
6 *1057:D *1078:CLK 6.65164e-05
7 *1057:D *1097:A 0.000755541
8 *1057:D *108:16 0.000565535
9 *1057:D *177:57 0.00048933
10 *1057:D *177:117 0.000547006
11 *1057:D *181:44 0.000582132
12 *1057:D *203:24 9.41642e-05
13 *1057:D *207:16 7.4662e-05
14 *41:8 *925:A 5.58005e-05
15 *41:12 *69:10 0.00147695
16 *41:12 *213:12 0
*RES
1 *925:X *41:8 16.8 
2 *41:8 *41:12 42.2679 
3 *41:12 *1057:D 44.8089 
*END

*D_NET *42 0.00410933
*CONN
*I *1058:D I *D sky130_fd_sc_hd__dfrtp_2
*I *930:X O *D sky130_fd_sc_hd__clkbuf_1
*CAP
1 *1058:D 0
2 *930:X 0.00116101
3 *42:12 0.00116101
4 *42:12 *899:A1 0.000142971
5 *42:12 *951:C 1.82896e-05
6 *42:12 *130:12 0.000242302
7 *42:12 *145:10 0.000485436
8 *42:12 *177:80 0.000347993
9 *42:12 *202:30 0.000550317
*RES
1 *930:X *42:12 44.4607 
2 *42:12 *1058:D 9.3 
*END

*D_NET *43 0.0134227
*CONN
*I *1059:D I *D sky130_fd_sc_hd__dfrtp_1
*I *933:Y O *D sky130_fd_sc_hd__nor3_1
*CAP
1 *1059:D 0
2 *933:Y 0.00416529
3 *43:24 0.00416529
4 *43:24 *1005:B 0
5 *43:24 *1081:RESET_B 0.000390202
6 *43:24 *80:14 0.000969226
7 *43:24 *93:68 0.000603543
8 *43:24 *103:38 2.63501e-05
9 *43:24 *158:26 0.000181346
10 *43:24 *203:48 0.000416055
11 *43:24 *205:30 0.000199781
12 *1086:A *43:24 0.00176476
13 *20:129 *43:24 0.000540902
*RES
1 *933:Y *43:24 48.211 
2 *43:24 *1059:D 13.8 
*END

*D_NET *44 0.00724661
*CONN
*I *1060:D I *D sky130_fd_sc_hd__dfrtp_2
*I *937:X O *D sky130_fd_sc_hd__clkbuf_1
*CAP
1 *1060:D 0
2 *937:X 0.00252298
3 *44:10 0.00252298
4 *44:10 *1071:CLK 0.00015945
5 *44:10 *187:47 0.000288749
6 *44:10 *195:12 0.000288749
7 *44:10 *214:72 0.00012051
8 *1071:D *44:10 2.5868e-05
9 *28:18 *44:10 0.00131732
*RES
1 *937:X *44:10 46.8536 
2 *44:10 *1060:D 13.8 
*END

*D_NET *45 0.00867407
*CONN
*I *1061:D I *D sky130_fd_sc_hd__dfrtp_1
*I *939:Y O *D sky130_fd_sc_hd__a211oi_1
*CAP
1 *1061:D 0
2 *939:Y 2.59206e-05
3 *45:14 0.00174441
4 *45:8 0.00177033
5 *45:8 *188:63 5.66971e-05
6 *45:14 *975:A 0
7 *45:14 *980:B 3.4323e-06
8 *45:14 *1056:RESET_B 7.6765e-05
9 *45:14 *1061:RESET_B 0.000482029
10 *45:14 *1074:RESET_B 0.00014317
11 *45:14 *52:10 0.000713173
12 *45:14 *126:47 0.000145512
13 *45:14 *132:14 0.00031213
14 *45:14 *137:20 0.00043325
15 *45:14 *155:39 0.000270939
16 *45:14 *162:38 2.26057e-05
17 *45:14 *168:26 0.00023263
18 *45:14 *175:16 7.49381e-05
19 *45:14 *195:63 4.15526e-05
20 *45:14 *195:73 0.000149726
21 *45:14 *199:18 8.44015e-06
22 *45:14 *201:34 2.35985e-05
23 *45:14 *201:40 0.00135035
24 *45:14 *204:8 4.62908e-05
25 *45:14 *204:43 6.07037e-07
26 *45:14 *219:12 0.000545572
*RES
1 *939:Y *45:8 14.3357 
2 *45:8 *45:14 46.4688 
3 *45:14 *1061:D 9.3 
*END

*D_NET *46 0.00999898
*CONN
*I *1062:D I *D sky130_fd_sc_hd__dfrtp_2
*I *943:X O *D sky130_fd_sc_hd__clkbuf_1
*CAP
1 *1062:D 0.000505306
2 *943:X 0.00124237
3 *46:10 0.00174768
4 *1062:D *980:C 8.48366e-05
5 *1062:D *97:8 0.000126352
6 *1062:D *162:38 5.33005e-05
7 *1062:D *162:54 9.66977e-05
8 *1062:D *176:6 0.000207163
9 *1062:D *176:14 6.57032e-05
10 *1062:D *177:16 0.00125049
11 *1062:D *201:40 0.000136951
12 *1062:D *201:56 3.03304e-05
13 *46:10 *1066:CLK 1.34741e-05
14 *46:10 *63:14 0.00016866
15 *46:10 *106:14 0.000347832
16 *46:10 *112:18 0.000962393
17 *46:10 *112:39 0.000528457
18 *46:10 *124:12 5.59013e-05
19 *46:10 *155:39 0.000799389
20 *46:10 *155:78 0.000301438
21 *46:10 *162:28 6.47912e-05
22 *46:10 *183:61 0.000161887
23 *46:10 *183:77 0.000189779
24 *46:10 *196:18 0.000553831
25 *46:10 *211:10 0.000303965
*RES
1 *943:X *46:10 46.8893 
2 *46:10 *1062:D 28.9607 
*END

*D_NET *47 0.0139084
*CONN
*I *1063:D I *D sky130_fd_sc_hd__dfrtp_2
*I *948:X O *D sky130_fd_sc_hd__buf_1
*CAP
1 *1063:D 0.000620392
2 *948:X 0.00333192
3 *47:18 0.00395231
4 *1063:D *894:A 8.08022e-05
5 *1063:D *894:B 4.98669e-05
6 *1063:D *895:B1 7.29922e-05
7 *1063:D *983:A 0
8 *1063:D *983:C 0
9 *1063:D *117:47 0.000498445
10 *1063:D *123:12 0.00128779
11 *1063:D *199:60 0.000205357
12 *1063:D *199:78 0.000690915
13 *1063:D *207:45 0
14 *47:18 *894:B 5.7986e-05
15 *47:18 *908:A_N 0.0001245
16 *47:18 *1061:CLK 2.06112e-05
17 *47:18 *50:28 0.000146617
18 *47:18 *54:20 0.00254911
19 *47:18 *80:14 0
20 *47:18 *93:20 7.45651e-05
21 *47:18 *114:20 0.000119501
22 *47:18 *123:12 2.46867e-05
23 *47:18 *188:24 0
*RES
1 *948:X *47:18 29.6345 
2 *47:18 *1063:D 35.6304 
*END

*D_NET *48 0.0100103
*CONN
*I *1053:RESET_B I *D sky130_fd_sc_hd__dfrtp_4
*I *1019:Y O *D sky130_fd_sc_hd__inv_2
*CAP
1 *1053:RESET_B 0.000675858
2 *1019:Y 0.00153326
3 *48:20 0.00220912
4 *1053:RESET_B *1064:RESET_B 0.00026477
5 *1053:RESET_B *84:29 0.000729761
6 *1053:RESET_B *99:18 0.000628456
7 *1053:RESET_B *165:12 5.7483e-05
8 *1053:RESET_B *179:10 0.00014261
9 *1053:RESET_B *179:14 8.57485e-05
10 *1053:RESET_B *191:90 1.41295e-05
11 *1053:RESET_B *204:22 0.000625879
12 *1053:RESET_B *214:16 5.52611e-05
13 *48:20 *907:D 0
14 *48:20 *1019:A 0.000348304
15 *48:20 *1064:RESET_B 0.000654759
16 *48:20 *1076:CLK 0.000238622
17 *48:20 *1076:RESET_B 0.000272571
18 *48:20 *60:16 2.87555e-06
19 *48:20 *165:12 2.74229e-05
20 *48:20 *175:103 0.000106879
21 *48:20 *180:10 7.75022e-05
22 *48:20 *180:21 0.000349562
23 *48:20 *180:32 0.000205183
24 *48:20 *180:43 0.000159989
25 *48:20 *180:45 0.000367883
26 *48:20 *215:18 0
27 *1076:D *48:20 6.43523e-05
28 *38:26 *48:20 0.000112063
*RES
1 *1019:Y *48:20 46.9696 
2 *48:20 *1053:RESET_B 25.3125 
*END

*D_NET *49 0.0105236
*CONN
*I *1054:RESET_B I *D sky130_fd_sc_hd__dfrtp_4
*I *1020:Y O *D sky130_fd_sc_hd__inv_2
*CAP
1 *1054:RESET_B 0.00235942
2 *1020:Y 0.000756724
3 *49:16 0.00311615
4 *1054:RESET_B *993:C 0.000260076
5 *1054:RESET_B *1072:CLK 0.000210187
6 *1054:RESET_B *1072:RESET_B 3.42904e-05
7 *1054:RESET_B *122:18 2.99108e-05
8 *1054:RESET_B *129:26 6.07251e-05
9 *1054:RESET_B *144:18 4.78556e-05
10 *1054:RESET_B *196:89 0.000173033
11 *1054:RESET_B *198:33 1.3828e-05
12 *1054:RESET_B *198:37 0.000294981
13 *1054:RESET_B *202:24 0.00031771
14 *49:16 *930:A 0.000278768
15 *49:16 *1020:A 7.25873e-06
16 *49:16 *1071:RESET_B 0.000170917
17 *49:16 *1073:RESET_B 3.50949e-06
18 *49:16 *55:12 0.000118812
19 *49:16 *61:22 0.00132824
20 *49:16 *202:30 0.000844487
21 *25:12 *1054:RESET_B 9.66977e-05
*RES
1 *1020:Y *49:16 42.3893 
2 *49:16 *1054:RESET_B 40.8571 
*END

*D_NET *50 0.0207892
*CONN
*I *1055:RESET_B I *D sky130_fd_sc_hd__dfrtp_4
*I *1021:Y O *D sky130_fd_sc_hd__inv_2
*CAP
1 *1055:RESET_B 7.59672e-06
2 *1021:Y 0.00669621
3 *50:28 0.00670381
4 *1055:RESET_B *984:B 2.23393e-05
5 *1055:RESET_B *80:18 6.27272e-06
6 *50:28 *911:C1 0.000109337
7 *50:28 *933:C 0.000302449
8 *50:28 *1067:RESET_B 0.000524712
9 *50:28 *1075:RESET_B 0
10 *50:28 *54:20 0.000957438
11 *50:28 *93:20 0.000620638
12 *50:28 *93:30 0.00054225
13 *50:28 *131:22 0.000644062
14 *50:28 *148:35 5.00194e-05
15 *50:28 *168:14 0.000136508
16 *50:28 *173:90 0.000156272
17 *50:28 *175:159 2.06112e-05
18 *50:28 *187:22 0.000118308
19 *50:28 *201:34 2.15327e-05
20 *50:28 *203:60 0.000216564
21 *50:28 *218:16 5.7836e-06
22 *1064:D *50:28 0.000107807
23 *23:24 *50:28 0.00267209
24 *47:18 *50:28 0.000146617
*RES
1 *1021:Y *50:28 47.5079 
2 *50:28 *1055:RESET_B 8.18679 
*END

*D_NET *51 0.00900217
*CONN
*I *1056:RESET_B I *D sky130_fd_sc_hd__dfrtp_2
*I *1022:Y O *D sky130_fd_sc_hd__inv_2
*CAP
1 *1056:RESET_B 0.000903694
2 *1022:Y 0.00146197
3 *51:20 0.00236566
4 *1056:RESET_B *903:A 2.5912e-05
5 *1056:RESET_B *1010:A 0.00012013
6 *1056:RESET_B *1012:A 0.00030868
7 *1056:RESET_B *1012:B 8.37905e-05
8 *1056:RESET_B *1061:RESET_B 0.000482029
9 *1056:RESET_B *1088:A 0.000980138
10 *1056:RESET_B *52:10 5.49489e-05
11 *1056:RESET_B *79:14 2.05612e-05
12 *1056:RESET_B *132:14 4.98582e-05
13 *1056:RESET_B *162:28 9.25014e-06
14 *1056:RESET_B *162:38 4.2313e-06
15 *1056:RESET_B *168:26 0.000326615
16 *1056:RESET_B *178:33 2.11419e-05
17 *1056:RESET_B *183:141 0.000100809
18 *51:20 *907:A_N 4.38088e-05
19 *51:20 *912:A1 1.41367e-05
20 *51:20 *927:B 0.000910188
21 *51:20 *948:A 7.8195e-05
22 *51:20 *1022:A 3.69047e-06
23 *51:20 *1061:CLK 0
24 *51:20 *83:28 0
25 *51:20 *148:41 6.11492e-05
26 *51:20 *149:16 0
27 *51:20 *188:14 0
28 *51:20 *188:24 0.000299564
29 *51:20 *188:102 0
30 *51:20 *191:90 0.00018566
31 *1075:D *51:20 9.59497e-06
32 *45:14 *1056:RESET_B 7.6765e-05
*RES
1 *1022:Y *51:20 48.7286 
2 *51:20 *1056:RESET_B 35.7321 
*END

*D_NET *52 0.00803366
*CONN
*I *1057:RESET_B I *D sky130_fd_sc_hd__dfrtp_1
*I *1023:Y O *D sky130_fd_sc_hd__inv_2
*CAP
1 *1057:RESET_B 0.000333302
2 *1023:Y 0.00213005
3 *52:10 0.00246335
4 *1057:RESET_B *170:16 0.000674806
5 *1057:RESET_B *207:16 0.000135977
6 *52:10 *1023:A 0.000320208
7 *52:10 *89:16 0.000419328
8 *52:10 *162:38 0.000134552
9 *52:10 *175:63 0.000102016
10 *52:10 *179:10 0.000135028
11 *52:10 *183:141 0.000416916
12 *1056:RESET_B *52:10 5.49489e-05
13 *45:14 *52:10 0.000713173
*RES
1 *1023:Y *52:10 45.6393 
2 *52:10 *1057:RESET_B 11.1339 
*END

*D_NET *53 0.0118692
*CONN
*I *1058:RESET_B I *D sky130_fd_sc_hd__dfrtp_2
*I *1024:Y O *D sky130_fd_sc_hd__inv_2
*CAP
1 *1058:RESET_B 0.000292417
2 *1024:Y 0.00226507
3 *53:22 0.00255749
4 *1058:RESET_B *93:126 4.83905e-05
5 *1058:RESET_B *208:8 0.000130581
6 *1058:RESET_B *208:93 4.19877e-05
7 *53:22 *982:A3 0.000351633
8 *53:22 *982:A4 1.28166e-05
9 *53:22 *991:A 1.76266e-05
10 *53:22 *1005:A 0.003015
11 *53:22 *1069:RESET_B 0.000177457
12 *53:22 *1073:RESET_B 0.000124511
13 *53:22 *70:16 0.00018489
14 *53:22 *103:66 0.00037672
15 *53:22 *140:28 0.000501352
16 *53:22 *146:72 0.000210266
17 *53:22 *146:78 3.78211e-05
18 *53:22 *146:80 8.06788e-05
19 *53:22 *177:22 4.26495e-05
20 *53:22 *183:141 0.00048862
21 *53:22 *201:56 0.000752492
22 *53:22 *220:10 2.11068e-05
23 *53:22 *222:12 0.000137639
*RES
1 *1024:Y *53:22 46.7289 
2 *53:22 *1058:RESET_B 9.49107 
*END

*D_NET *54 0.0160157
*CONN
*I *1059:RESET_B I *D sky130_fd_sc_hd__dfrtp_1
*I *1025:Y O *D sky130_fd_sc_hd__inv_2
*CAP
1 *1059:RESET_B 0.000335597
2 *1025:Y 0.00444753
3 *54:20 0.00478313
4 *1059:RESET_B *890:B 1.27529e-05
5 *1059:RESET_B *1070:CLK 0.000155155
6 *1059:RESET_B *93:108 0
7 *1059:RESET_B *103:52 3.19909e-05
8 *1059:RESET_B *185:43 0.000144553
9 *1059:RESET_B *189:61 0.00015343
10 *1059:RESET_B *192:61 0
11 *54:20 *908:A_N 0.000241081
12 *54:20 *916:A 0.000706968
13 *54:20 *933:C 0.00016303
14 *54:20 *1025:A 6.15526e-06
15 *54:20 *1070:CLK 9.90819e-06
16 *54:20 *1081:RESET_B 0.00107157
17 *54:20 *80:14 0
18 *54:20 *93:108 0
19 *54:20 *98:12 0
20 *54:20 *189:61 0.000202488
21 *54:20 *203:60 4.37979e-05
22 *47:18 *54:20 0.00254911
23 *50:28 *54:20 0.000957438
*RES
1 *1025:Y *54:20 49.5012 
2 *54:20 *1059:RESET_B 11.1518 
*END

*D_NET *55 0.00641173
*CONN
*I *1060:RESET_B I *D sky130_fd_sc_hd__dfrtp_2
*I *1026:Y O *D sky130_fd_sc_hd__inv_2
*CAP
1 *1060:RESET_B 0.000124689
2 *1026:Y 0.00139264
3 *55:12 0.00151733
4 *1060:RESET_B *1011:A 8.71192e-05
5 *55:12 *930:A 0.000430634
6 *55:12 *966:B 3.07351e-06
7 *55:12 *981:C1 0.000221064
8 *55:12 *1011:A 1.21258e-05
9 *55:12 *1067:RESET_B 7.04329e-05
10 *55:12 *61:22 0.00168746
11 *55:12 *65:10 0.000715706
12 *55:12 *139:14 0
13 *55:12 *142:16 0
14 *55:12 *194:27 3.06406e-05
15 *49:16 *55:12 0.000118812
*RES
1 *1026:Y *55:12 49.9071 
2 *55:12 *1060:RESET_B 2.13393 
*END

*D_NET *56 0.00183368
*CONN
*I *1061:RESET_B I *D sky130_fd_sc_hd__dfrtp_1
*I *1027:Y O *D sky130_fd_sc_hd__inv_2
*CAP
1 *1061:RESET_B 0.000290999
2 *1027:Y 0.000290999
3 *1061:RESET_B *1003:B 0.00011173
4 *1061:RESET_B *162:28 0.000175892
5 *1056:RESET_B *1061:RESET_B 0.000482029
6 *45:14 *1061:RESET_B 0.000482029
*RES
1 *1027:Y *1061:RESET_B 26.9786 
*END

*D_NET *57 0.00476678
*CONN
*I *1062:RESET_B I *D sky130_fd_sc_hd__dfrtp_2
*I *1028:Y O *D sky130_fd_sc_hd__inv_2
*CAP
1 *1062:RESET_B 0.00115192
2 *1028:Y 0.00115192
3 *1062:RESET_B *939:A1 0.000141343
4 *1062:RESET_B *945:B 0.000216915
5 *1062:RESET_B *952:A 0.000328297
6 *1062:RESET_B *995:A 3.18747e-05
7 *1062:RESET_B *995:B 0.000274126
8 *1062:RESET_B *997:C 0.000617616
9 *1062:RESET_B *1028:A 1.02911e-05
10 *1062:RESET_B *87:69 0.00019291
11 *1062:RESET_B *184:10 0.000231485
12 *1062:RESET_B *184:16 2.18087e-05
13 *1062:RESET_B *213:28 0.00013748
14 *997:A *1062:RESET_B 0.000145999
15 *35:10 *1062:RESET_B 0.000112791
*RES
1 *1028:Y *1062:RESET_B 45.0946 
*END

*D_NET *58 0.00161012
*CONN
*I *1063:RESET_B I *D sky130_fd_sc_hd__dfrtp_2
*I *1030:Y O *D sky130_fd_sc_hd__inv_2
*CAP
1 *1063:RESET_B 0.00046325
2 *1030:Y 0.00046325
3 *1063:RESET_B *895:B1 9.99644e-06
4 *1063:RESET_B *902:C 4.43157e-05
5 *1063:RESET_B *902:D 5.52302e-05
6 *1063:RESET_B *1063:CLK 0.000346541
7 *1063:RESET_B *182:85 0.000227532
*RES
1 *1030:Y *1063:RESET_B 18.5411 
*END

*D_NET *59 0.00756379
*CONN
*I *1064:RESET_B I *D sky130_fd_sc_hd__dfrtp_4
*I *1031:Y O *D sky130_fd_sc_hd__inv_2
*CAP
1 *1064:RESET_B 0.000998578
2 *1031:Y 0.000781431
3 *59:16 0.00178001
4 *1064:RESET_B *907:D 5.8276e-05
5 *1064:RESET_B *99:18 0.000632152
6 *1064:RESET_B *112:30 0
7 *1064:RESET_B *134:18 0.00081407
8 *1064:RESET_B *179:10 8.85344e-05
9 *1064:RESET_B *215:18 0
10 *59:16 *987:A 0.000305558
11 *59:16 *112:30 4.25213e-05
12 *59:16 *179:14 4.69217e-06
13 *59:16 *201:56 0.000180501
14 *1053:RESET_B *1064:RESET_B 0.00026477
15 *1064:D *1064:RESET_B 0
16 *1073:D *59:16 0.000193422
17 *37:10 *59:16 0.000237171
18 *40:12 *59:16 0.000527345
19 *48:20 *1064:RESET_B 0.000654759
*RES
1 *1031:Y *59:16 30.8268 
2 *59:16 *1064:RESET_B 29.9732 
*END

*D_NET *60 0.00600014
*CONN
*I *1065:RESET_B I *D sky130_fd_sc_hd__dfrtp_2
*I *1032:Y O *D sky130_fd_sc_hd__inv_2
*CAP
1 *1065:RESET_B 0.000385415
2 *1032:Y 0.00172875
3 *60:16 0.00211417
4 *1065:RESET_B *1019:A 0.000272994
5 *1065:RESET_B *1076:RESET_B 0.000335643
6 *1065:RESET_B *152:28 0.000120876
7 *60:16 *912:A2 1.92905e-05
8 *60:16 *1019:A 0.000210531
9 *60:16 *1076:CLK 0
10 *60:16 *1076:RESET_B 4.83461e-05
11 *60:16 *171:26 0
12 *60:16 *175:103 4.71848e-05
13 *60:16 *176:71 3.32631e-05
14 *60:16 *215:12 0.000146567
15 *1076:D *60:16 0.000534229
16 *48:20 *60:16 2.87555e-06
*RES
1 *1032:Y *60:16 43.6393 
2 *60:16 *1065:RESET_B 8.27679 
*END

*D_NET *61 0.00979902
*CONN
*I *1066:RESET_B I *D sky130_fd_sc_hd__dfrtp_1
*I *1033:Y O *D sky130_fd_sc_hd__inv_2
*CAP
1 *1066:RESET_B 0.000329831
2 *1033:Y 0.0019214
3 *61:22 0.00225123
4 *1066:RESET_B *181:92 5.29198e-05
5 *1066:RESET_B *181:100 0.000213786
6 *1066:RESET_B *212:58 0.000340962
7 *61:22 *930:A 8.7443e-05
8 *61:22 *990:A 0.000270161
9 *61:22 *1071:RESET_B 0.000531952
10 *61:22 *91:27 0
11 *61:22 *187:45 9.41642e-05
12 *61:22 *203:48 3.28554e-05
13 *61:22 *205:12 0.000288672
14 *61:22 *205:30 0.000367943
15 *49:16 *61:22 0.00132824
16 *55:12 *61:22 0.00168746
*RES
1 *1033:Y *61:22 49.4224 
2 *61:22 *1066:RESET_B 11.1339 
*END

*D_NET *62 0.0175427
*CONN
*I *1067:RESET_B I *D sky130_fd_sc_hd__dfrtp_4
*I *1034:Y O *D sky130_fd_sc_hd__inv_2
*CAP
1 *1067:RESET_B 0.00389891
2 *1034:Y 0.0012314
3 *62:14 0.00513031
4 *1067:RESET_B *930:A 1.46617e-05
5 *1067:RESET_B *988:B 3.00664e-05
6 *1067:RESET_B *93:20 0.000239842
7 *1067:RESET_B *93:30 0.000115235
8 *1067:RESET_B *117:47 0.000534589
9 *1067:RESET_B *131:22 0
10 *1067:RESET_B *140:28 0
11 *1067:RESET_B *142:16 2.54283e-05
12 *1067:RESET_B *148:35 0.000399717
13 *1067:RESET_B *175:80 0.000463411
14 *1067:RESET_B *184:88 9.34324e-05
15 *1067:RESET_B *196:62 0.000115499
16 *1067:RESET_B *201:34 8.74522e-05
17 *1067:RESET_B *203:60 5.24153e-05
18 *1067:RESET_B *214:98 0.000206432
19 *62:14 *944:A3 0.00124508
20 *62:14 *945:A 5.71472e-05
21 *62:14 *945:D 3.69697e-05
22 *62:14 *1003:B 8.9372e-05
23 *62:14 *1027:A 7.6507e-05
24 *62:14 *94:10 7.6644e-05
25 *62:14 *166:69 7.72535e-05
26 *62:14 *200:20 0.00102434
27 *1003:A *62:14 0.000599293
28 *1064:D *1067:RESET_B 0.00102619
29 *50:28 *1067:RESET_B 0.000524712
30 *55:12 *1067:RESET_B 7.04329e-05
*RES
1 *1034:Y *62:14 45.9429 
2 *62:14 *1067:RESET_B 37.5915 
*END

*D_NET *63 0.0139831
*CONN
*I *1068:RESET_B I *D sky130_fd_sc_hd__dfrtp_2
*I *1035:Y O *D sky130_fd_sc_hd__inv_2
*CAP
1 *1068:RESET_B 0.000731294
2 *1035:Y 0.00223686
3 *63:14 0.00296816
4 *1068:RESET_B *1068:CLK 0.000745123
5 *1068:RESET_B *70:16 0
6 *1068:RESET_B *192:18 0.000264592
7 *63:14 *939:A2 0.000671328
8 *63:14 *1014:B1_N 5.15925e-05
9 *63:14 *1035:A 7.20217e-06
10 *63:14 *106:14 0.000701844
11 *63:14 *151:26 0.000225356
12 *63:14 *166:59 6.98805e-05
13 *63:14 *171:26 9.43919e-05
14 *63:14 *183:77 5.49995e-05
15 *63:14 *195:73 0
16 *63:14 *196:18 0.00164603
17 *63:14 *204:8 0
18 *63:14 *221:22 0.00298739
19 *1056:D *63:14 3.54455e-05
20 *1068:D *63:14 0.000176469
21 *27:26 *63:14 0.000146487
22 *46:10 *63:14 0.00016866
*RES
1 *1035:Y *63:14 47.433 
2 *63:14 *1068:RESET_B 19.3743 
*END

*D_NET *64 0.0104266
*CONN
*I *1069:RESET_B I *D sky130_fd_sc_hd__dfrtp_1
*I *1036:Y O *D sky130_fd_sc_hd__inv_2
*CAP
1 *1069:RESET_B 0.00124964
2 *1036:Y 0.00127654
3 *64:8 0.00252617
4 *1069:RESET_B *904:B 7.03891e-05
5 *1069:RESET_B *939:A2 4.27935e-05
6 *1069:RESET_B *949:A 0.000143505
7 *1069:RESET_B *949:B 5.49544e-05
8 *1069:RESET_B *967:B 0.00174577
9 *1069:RESET_B *979:A 8.49911e-05
10 *1069:RESET_B *1040:A 0.000889217
11 *1069:RESET_B *1073:RESET_B 7.56188e-05
12 *1069:RESET_B *1084:RESET_B 0.000120953
13 *1069:RESET_B *129:26 0.000191423
14 *1069:RESET_B *173:60 8.44271e-06
15 *1069:RESET_B *188:71 0.000476022
16 *1069:RESET_B *190:14 3.03899e-05
17 *1069:RESET_B *193:16 4.40966e-05
18 *1069:RESET_B *203:24 4.45639e-05
19 *1069:RESET_B *212:58 0.00014204
20 *1069:RESET_B *215:40 5.05056e-05
21 *1069:RESET_B *220:10 4.0079e-05
22 *64:8 *909:A2 0.000598704
23 *64:8 *67:16 0.000342302
24 *53:22 *1069:RESET_B 0.000177457
*RES
1 *1036:Y *64:8 29.1214 
2 *64:8 *1069:RESET_B 39.2589 
*END

*D_NET *65 0.00574349
*CONN
*I *1070:RESET_B I *D sky130_fd_sc_hd__dfrtp_4
*I *1037:Y O *D sky130_fd_sc_hd__inv_2
*CAP
1 *1070:RESET_B 0.000194884
2 *1037:Y 0.00108535
3 *65:10 0.00128023
4 *1070:RESET_B *899:B1 0.000303972
5 *1070:RESET_B *176:118 1.81829e-05
6 *65:10 *963:A 0.000558728
7 *65:10 *119:41 0
8 *65:10 *139:14 0.00036376
9 *65:10 *158:26 3.40437e-05
10 *65:10 *164:37 7.66156e-05
11 *65:10 *175:153 6.2589e-06
12 *65:10 *175:159 0.000466698
13 *65:10 *176:44 0.000574118
14 *65:10 *177:57 3.85639e-05
15 *65:10 *194:27 2.63834e-05
16 *65:10 *202:30 0
17 *55:12 *65:10 0.000715706
*RES
1 *1037:Y *65:10 47.8714 
2 *65:10 *1070:RESET_B 3.34821 
*END

*D_NET *66 0.0059874
*CONN
*I *1071:RESET_B I *D sky130_fd_sc_hd__dfrtp_4
*I *1038:Y O *D sky130_fd_sc_hd__inv_2
*CAP
1 *1071:RESET_B 0.000431209
2 *1038:Y 0.00122898
3 *66:14 0.00166019
4 *1071:RESET_B *910:A 0.000513655
5 *1071:RESET_B *910:C 7.61841e-05
6 *1071:RESET_B *930:A 1.24912e-05
7 *1071:RESET_B *966:A 0.000437003
8 *1071:RESET_B *981:C1 3.26383e-05
9 *1071:RESET_B *202:30 1.65457e-05
10 *66:14 *895:A1 7.55769e-05
11 *66:14 *929:C 7.57673e-05
12 *66:14 *931:B1 0.000163645
13 *66:14 *1083:RESET_B 0.000262172
14 *66:14 *199:60 0.00029848
15 *49:16 *1071:RESET_B 0.000170917
16 *61:22 *1071:RESET_B 0.000531952
*RES
1 *1038:Y *66:14 39.1571 
2 *66:14 *1071:RESET_B 17.9821 
*END

*D_NET *67 0.00686188
*CONN
*I *1072:RESET_B I *D sky130_fd_sc_hd__dfrtp_4
*I *1039:Y O *D sky130_fd_sc_hd__inv_2
*CAP
1 *1072:RESET_B 7.59291e-05
2 *1039:Y 0.00127281
3 *67:16 0.00134874
4 *1072:RESET_B *198:33 0.000169673
5 *67:16 *905:B 0.000311327
6 *67:16 *905:C 2.59355e-05
7 *67:16 *909:A2 1.33343e-05
8 *67:16 *941:A 0.000447988
9 *67:16 *988:B 0.000649013
10 *67:16 *1084:RESET_B 0
11 *67:16 *84:58 0.000510387
12 *67:16 *85:16 0.000265205
13 *67:16 *95:63 1.5424e-05
14 *67:16 *135:16 0.000100823
15 *67:16 *192:86 0.00106164
16 *67:16 *193:22 2.63062e-05
17 *67:16 *197:41 0.000136485
18 *67:16 *208:28 0
19 *1054:RESET_B *1072:RESET_B 3.42904e-05
20 *30:10 *67:16 5.42698e-05
21 *64:8 *67:16 0.000342302
*RES
1 *1039:Y *67:16 48.425 
2 *67:16 *1072:RESET_B 1.70536 
*END

*D_NET *68 0.00919288
*CONN
*I *1073:RESET_B I *D sky130_fd_sc_hd__dfrtp_2
*I *1041:Y O *D sky130_fd_sc_hd__inv_2
*CAP
1 *1073:RESET_B 0.00178811
2 *1041:Y 0.000803214
3 *68:12 0.00259133
4 *1073:RESET_B *896:B1 0.000136958
5 *1073:RESET_B *1020:A 1.4796e-05
6 *1073:RESET_B *1026:A 3.2033e-05
7 *1073:RESET_B *1093:A 2.47753e-05
8 *1073:RESET_B *106:14 0.000193942
9 *1073:RESET_B *183:77 0.0005659
10 *1073:RESET_B *183:121 0.000512913
11 *1073:RESET_B *190:14 8.87219e-05
12 *1073:RESET_B *192:43 6.13757e-06
13 *1073:RESET_B *197:8 5.49489e-05
14 *1073:RESET_B *220:10 0.000100936
15 *68:12 *1009:C1 0.000560353
16 *68:12 *175:159 0.000510492
17 *68:12 *202:30 0.00100369
18 *1069:RESET_B *1073:RESET_B 7.56188e-05
19 *49:16 *1073:RESET_B 3.50949e-06
20 *53:22 *1073:RESET_B 0.000124511
*RES
1 *1041:Y *68:12 36.9429 
2 *68:12 *1073:RESET_B 34.7232 
*END

*D_NET *69 0.0189865
*CONN
*I *1074:RESET_B I *D sky130_fd_sc_hd__dfrtp_2
*I *1042:Y O *D sky130_fd_sc_hd__inv_2
*CAP
1 *1074:RESET_B 0.002746
2 *1042:Y 0.000201959
3 *69:10 0.00435965
4 *69:8 0.00181561
5 *1074:RESET_B *949:B 7.27952e-05
6 *1074:RESET_B *1016:A 0.00210939
7 *1074:RESET_B *1050:A 0.00159462
8 *1074:RESET_B *78:30 0.00130128
9 *1074:RESET_B *86:51 0.000238297
10 *1074:RESET_B *109:10 9.81721e-06
11 *1074:RESET_B *126:47 8.49064e-05
12 *1074:RESET_B *173:90 0.000428401
13 *1074:RESET_B *188:63 9.47964e-05
14 *1074:RESET_B *199:18 0.00029032
15 *1074:RESET_B *221:22 0
16 *69:10 *74:14 0
17 *69:10 *205:12 4.5258e-05
18 *69:10 *213:12 0.00148385
19 *69:10 *220:37 3.72365e-05
20 an[3] *69:10 2.06178e-05
21 an[4] *69:10 2.06178e-05
22 an[5] *69:10 2.06178e-05
23 an[6] *69:10 4.50149e-05
24 seg[1] *69:10 2.06178e-05
25 seg[2] *69:10 2.06178e-05
26 seg[3] *69:10 2.06178e-05
27 seg[4] *1074:RESET_B 2.23092e-05
28 seg[4] *69:10 2.06178e-05
29 seg[5] *1074:RESET_B 8.73272e-06
30 *1054:D *69:8 2.51343e-06
31 *1068:D *1074:RESET_B 0.000229322
32 *41:12 *69:10 0.00147695
33 *45:14 *1074:RESET_B 0.00014317
*RES
1 *1042:Y *69:8 15.9786 
2 *69:8 *69:10 48.2411 
3 *69:10 *1074:RESET_B 25.4391 
*END

*D_NET *70 0.0243121
*CONN
*I *1075:RESET_B I *D sky130_fd_sc_hd__dfrtp_2
*I *1043:Y O *D sky130_fd_sc_hd__inv_2
*CAP
1 *1075:RESET_B 0.00466026
2 *1043:Y 0.00412845
3 *70:16 0.0087887
4 *1075:RESET_B *92:14 8.0686e-05
5 *1075:RESET_B *101:18 2.14879e-05
6 *1075:RESET_B *131:22 0
7 *1075:RESET_B *133:79 0.000171395
8 *1075:RESET_B *161:14 4.70487e-05
9 *1075:RESET_B *176:71 6.52495e-05
10 *70:16 *919:B 0.000282308
11 *70:16 *921:A 0
12 *70:16 *921:C 7.88091e-05
13 *70:16 *1005:A 3.56906e-05
14 *70:16 *1043:A 0
15 *70:16 *1068:CLK 0.000141941
16 *70:16 *76:14 0.000640476
17 *70:16 *130:12 0.000303297
18 *70:16 *140:28 0.0035186
19 *70:16 *167:43 9.78813e-05
20 *70:16 *177:123 0
21 *70:16 *195:63 4.58615e-05
22 *70:16 *213:14 0.000355045
23 *70:16 *213:28 0.00035604
24 *70:16 *218:16 0.000307969
25 *1068:RESET_B *70:16 0
26 *1086:A *1075:RESET_B 0
27 *38:26 *1075:RESET_B 0
28 *50:28 *1075:RESET_B 0
29 *53:22 *70:16 0.00018489
*RES
1 *1043:Y *70:16 47.3058 
2 *70:16 *1075:RESET_B 22.0813 
*END

*D_NET *71 0.0110497
*CONN
*I *1076:RESET_B I *D sky130_fd_sc_hd__dfrtp_2
*I *1044:Y O *D sky130_fd_sc_hd__inv_2
*CAP
1 *1076:RESET_B 0.00108343
2 *1044:Y 0.00146723
3 *71:12 0.00255066
4 *1076:RESET_B *1019:A 0.000363089
5 *1076:RESET_B *1038:A 4.43256e-05
6 *1076:RESET_B *1065:CLK 0.00105406
7 *1076:RESET_B *115:14 0.00113533
8 *1076:RESET_B *151:26 0.000103646
9 *1076:RESET_B *171:26 0.000128866
10 *1076:RESET_B *197:81 4.22188e-05
11 *1076:RESET_B *201:78 2.30913e-05
12 *71:12 *1065:CLK 6.64337e-05
13 *71:12 *182:28 5.5056e-05
14 *71:12 *182:72 0.000264532
15 *71:12 *182:81 9.62002e-05
16 *71:12 *198:37 0.000841699
17 *1065:RESET_B *1076:RESET_B 0.000335643
18 *1071:D *71:12 0.000997821
19 *30:10 *1076:RESET_B 7.54775e-05
20 *48:20 *1076:RESET_B 0.000272571
21 *60:16 *1076:RESET_B 4.83461e-05
*RES
1 *1044:Y *71:12 43.4071 
2 *71:12 *1076:RESET_B 37.6161 
*END

*D_NET *72 0.00286185
*CONN
*I *1077:RESET_B I *D sky130_fd_sc_hd__dfrtp_1
*I *1045:Y O *D sky130_fd_sc_hd__inv_2
*CAP
1 *1077:RESET_B 0.000370461
2 *1045:Y 0.000370461
3 *1077:RESET_B *907:A_N 1.21258e-05
4 *1077:RESET_B *907:B 0.000224161
5 *1077:RESET_B *907:C 0.000807314
6 *1077:RESET_B *907:D 1.14548e-05
7 *1077:RESET_B *1025:A 0.000361639
8 *1077:RESET_B *1077:CLK 0.000103977
9 *1077:RESET_B *98:12 2.77258e-05
10 *1077:RESET_B *154:44 0.000219309
11 *1077:RESET_B *165:12 3.42464e-05
12 *1077:RESET_B *175:103 0.000212159
13 *1077:D *1077:RESET_B 0.000106812
*RES
1 *1045:Y *1077:RESET_B 22.9161 
*END

*D_NET *73 0.0151617
*CONN
*I *1078:RESET_B I *D sky130_fd_sc_hd__dfrtp_4
*I *1046:Y O *D sky130_fd_sc_hd__inv_2
*CAP
1 *1078:RESET_B 0.0026523
2 *1046:Y 0.00102465
3 *73:12 0.00367696
4 *1078:RESET_B *944:B1 0.000209385
5 *1078:RESET_B *952:A 0.000381153
6 *1078:RESET_B *1005:B 0.000531245
7 *1078:RESET_B *160:18 0.000189796
8 *1078:RESET_B *166:59 0.000456252
9 *1078:RESET_B *168:14 0.00120699
10 *1078:RESET_B *184:66 0.00015571
11 *1078:RESET_B *190:52 0.000128608
12 *1078:RESET_B *199:18 8.79752e-05
13 *1078:RESET_B *204:43 0.00115356
14 *1078:RESET_B *220:10 0.000250795
15 *73:12 *944:B1 0
16 *73:12 *1005:B 8.37336e-05
17 *73:12 *1046:A 0.000113295
18 *73:12 *80:18 0.000366612
19 *1086:A *1078:RESET_B 0.000852144
20 *20:22 *1078:RESET_B 7.84967e-05
21 *22:14 *1078:RESET_B 6.24392e-05
22 *35:10 *1078:RESET_B 8.19695e-05
23 *35:10 *73:12 0.00141766
*RES
1 *1046:Y *73:12 36.8 
2 *73:12 *1078:RESET_B 34.9895 
*END

*D_NET *74 0.0161658
*CONN
*I *1079:RESET_B I *D sky130_fd_sc_hd__dfrtp_2
*I *1047:Y O *D sky130_fd_sc_hd__inv_2
*CAP
1 *1079:RESET_B 0.000665311
2 *1047:Y 0.00374506
3 *74:14 0.00441037
4 *1079:RESET_B *982:A1 2.6913e-05
5 *1079:RESET_B *1010:A 0.000142751
6 *1079:RESET_B *126:47 0.000342111
7 *1079:RESET_B *173:18 0.000506284
8 *1079:RESET_B *195:73 0.000296274
9 *74:14 *903:B 0.00371245
10 *74:14 *920:A2 0.00015598
11 *74:14 *950:B 0.000337942
12 *74:14 *989:B 4.05607e-05
13 *74:14 *1009:A1 0.000110777
14 *74:14 *1095:A 0
15 *74:14 *108:16 4.93964e-05
16 *74:14 *168:14 0.000293907
17 *74:14 *173:90 0
18 *74:14 *177:80 0.000742409
19 *74:14 *199:78 0
20 *74:14 *204:43 0.00045834
21 *74:14 *210:34 0
22 *74:14 *213:12 0
23 *74:14 *213:14 2.84306e-05
24 *74:14 *213:28 1.0446e-05
25 *74:14 *217:14 0
26 seg[0] *74:14 2.16899e-05
27 *20:22 *1079:RESET_B 6.8404e-05
28 *69:10 *74:14 0
*RES
1 *1047:Y *74:14 49.0204 
2 *74:14 *1079:RESET_B 23.785 
*END

*D_NET *75 0.00383016
*CONN
*I *1080:RESET_B I *D sky130_fd_sc_hd__dfrtp_1
*I *1048:Y O *D sky130_fd_sc_hd__inv_2
*CAP
1 *1080:RESET_B 0.00115174
2 *1048:Y 0.00115174
3 *1080:RESET_B *989:B 7.62836e-05
4 *1080:RESET_B *1008:B2 0.000347187
5 *1080:RESET_B *1048:A 4.58194e-05
6 *1080:RESET_B *1080:CLK 4.58194e-05
7 *1080:RESET_B *110:12 0.000172223
8 *1080:RESET_B *117:10 9.89883e-05
9 *1080:RESET_B *117:37 0.000300069
10 *1080:RESET_B *155:78 0.000101876
11 *1080:RESET_B *172:10 9.15842e-06
12 *1080:RESET_B *207:18 0.000289204
13 *1080:RESET_B *207:45 4.00602e-05
*RES
1 *1048:Y *1080:RESET_B 39.1125 
*END

*D_NET *76 0.0153052
*CONN
*I *1081:RESET_B I *D sky130_fd_sc_hd__dfrtp_4
*I *1049:Y O *D sky130_fd_sc_hd__inv_2
*CAP
1 *1081:RESET_B 0.00128559
2 *1049:Y 0.0021426
3 *76:14 0.00342819
4 *1081:RESET_B *93:68 0.00190463
5 *1081:RESET_B *105:16 0.00132029
6 *1081:RESET_B *116:34 0.000260582
7 *1081:RESET_B *183:14 3.50468e-05
8 *76:14 *1005:A 0
9 *76:14 *131:22 0
10 *76:14 *166:59 0.000140968
11 *76:14 *184:66 2.11419e-05
12 *76:14 *195:63 9.59781e-05
13 *76:14 *196:18 2.11419e-05
14 *76:14 *213:28 0.00247384
15 *1086:A *76:14 0
16 *1094:A *1081:RESET_B 5.92419e-05
17 *26:16 *1081:RESET_B 1.37255e-05
18 *32:16 *1081:RESET_B 0
19 *43:24 *1081:RESET_B 0.000390202
20 *54:20 *1081:RESET_B 0.00107157
21 *70:16 *76:14 0.000640476
*RES
1 *1049:Y *76:14 26.8533 
2 *76:14 *1081:RESET_B 49.7857 
*END

*D_NET *77 0.00764689
*CONN
*I *1082:RESET_B I *D sky130_fd_sc_hd__dfrtp_4
*I *1050:Y O *D sky130_fd_sc_hd__inv_2
*CAP
1 *1082:RESET_B 0.00183014
2 *1050:Y 0.00183014
3 *1082:RESET_B *1014:A1 9.56348e-05
4 *1082:RESET_B *1014:B1_N 0.00126517
5 *1082:RESET_B *1015:A2 2.23592e-05
6 *1082:RESET_B *1016:A 2.31587e-05
7 *1082:RESET_B *1018:A 9.41642e-05
8 *1082:RESET_B *1050:A 3.45371e-05
9 *1082:RESET_B *1082:CLK 0.000332096
10 *1082:RESET_B *81:16 5.68426e-05
11 *1082:RESET_B *133:30 4.98406e-05
12 *1082:RESET_B *173:60 0.000231896
13 *1082:RESET_B *175:16 0.000334143
14 *1082:RESET_B *179:35 8.95645e-05
15 *1082:RESET_B *184:10 8.25613e-05
16 *1082:RESET_B *215:32 0.000162935
17 *1082:RESET_B *215:40 4.35725e-05
18 *1082:RESET_B *219:12 0.000137983
19 *1082:RESET_B *220:37 0.000459781
20 *20:22 *1082:RESET_B 0.000470382
*RES
1 *1050:Y *1082:RESET_B 48.9696 
*END

*D_NET *78 0.0164399
*CONN
*I *1083:RESET_B I *D sky130_fd_sc_hd__dfrtp_4
*I *1051:Y O *D sky130_fd_sc_hd__inv_2
*CAP
1 *1083:RESET_B 0.000123606
2 *1051:Y 0.00486535
3 *78:30 0.00498895
4 *1083:RESET_B *85:42 9.41642e-05
5 *1083:RESET_B *199:60 0.000332301
6 *78:30 *942:C 4.65519e-05
7 *78:30 *986:B 6.25005e-05
8 *78:30 *988:B 0.000329313
9 *78:30 *1016:A 8.31798e-05
10 *78:30 *1017:A2 0.00019576
11 *78:30 *86:43 4.88232e-05
12 *78:30 *126:51 0.000198771
13 *78:30 *126:72 0.000416831
14 *78:30 *126:97 0.000810798
15 *78:30 *126:132 0.000123126
16 *78:30 *151:26 0.000158226
17 *78:30 *184:33 6.25005e-05
18 *78:30 *208:34 8.45113e-05
19 *1068:D *78:30 0.000852328
20 *1074:RESET_B *78:30 0.00130128
21 *23:24 *78:30 0.000291514
22 *27:26 *78:30 0.000707321
23 *66:14 *1083:RESET_B 0.000262172
*RES
1 *1051:Y *78:30 48.8821 
2 *78:30 *1083:RESET_B 4.16964 
*END

*D_NET *79 0.00783573
*CONN
*I *1084:RESET_B I *D sky130_fd_sc_hd__dfrtp_4
*I *1052:Y O *D sky130_fd_sc_hd__inv_2
*CAP
1 *1084:RESET_B 0.00111791
2 *1052:Y 0.000554287
3 *79:14 0.00167219
4 *1084:RESET_B *905:C 0.000231975
5 *1084:RESET_B *905:D 1.36991e-05
6 *1084:RESET_B *929:A 4.19234e-05
7 *1084:RESET_B *929:C 0.000242303
8 *1084:RESET_B *967:B 8.48275e-05
9 *1084:RESET_B *1090:A 7.03279e-05
10 *1084:RESET_B *117:47 8.97484e-05
11 *1084:RESET_B *120:14 4.00349e-05
12 *1084:RESET_B *146:28 0.000234407
13 *1084:RESET_B *158:14 2.30116e-06
14 *1084:RESET_B *190:14 0.000100248
15 *1084:RESET_B *202:24 6.38616e-05
16 *1084:RESET_B *203:48 0.000623478
17 *1084:RESET_B *208:28 0.000436351
18 *1084:RESET_B *212:58 0.000143694
19 *79:14 *1012:A 4.4873e-05
20 *79:14 *1012:B 0.000221822
21 *79:14 *1035:A 9.96553e-05
22 *79:14 *112:30 9.41642e-05
23 *79:14 *122:18 0.00030267
24 *79:14 *159:22 0.000890232
25 *79:14 *183:141 0.000177591
26 *79:14 *201:40 9.96487e-05
27 *1056:RESET_B *79:14 2.05612e-05
28 *1069:RESET_B *1084:RESET_B 0.000120953
29 *67:16 *1084:RESET_B 0
*RES
1 *1052:Y *79:14 36.175 
2 *79:14 *1084:RESET_B 34.2289 
*END

*D_NET *80 0.0153265
*CONN
*I *225:DIODE I *D sky130_fd_sc_hd__diode_2
*I *1081:D I *D sky130_fd_sc_hd__dfrtp_4
*I *899:X O *D sky130_fd_sc_hd__o21a_1
*CAP
1 *225:DIODE 0
2 *1081:D 0.000205381
3 *899:X 0.00504095
4 *80:18 0.00129477
5 *80:14 0.00613034
6 *1081:D *1081:CLK 7.77652e-05
7 *1081:D *183:14 6.05161e-06
8 *1081:D *183:24 4.0342e-05
9 *80:14 *908:A_N 0.000222586
10 *80:14 *103:38 2.14624e-05
11 *80:14 *110:12 2.06178e-05
12 *80:14 *114:20 0.000122208
13 *80:14 *189:61 0.000126478
14 *80:14 *203:48 6.54386e-05
15 *80:14 *205:12 0
16 *80:14 *205:30 0
17 *80:14 *207:45 2.06178e-05
18 *80:18 *908:B 0
19 *80:18 *944:B1 0.000212417
20 *80:18 *984:B 0
21 *80:18 *161:14 0
22 *80:18 *198:33 3.92201e-05
23 *80:18 *200:20 0
24 *933:A *80:18 0
25 *1055:RESET_B *80:18 6.27272e-06
26 *35:10 *80:18 0.000337698
27 *43:24 *80:14 0.000969226
28 *47:18 *80:14 0
29 *54:20 *80:14 0
30 *73:12 *80:18 0.000366612
*RES
1 *899:X *80:14 30.8169 
2 *80:14 *80:18 28.4554 
3 *80:18 *1081:D 12.7464 
4 *80:18 *225:DIODE 9.3 
*END

*D_NET *81 0.00588746
*CONN
*I *1082:D I *D sky130_fd_sc_hd__dfrtp_4
*I *897:Y O *D sky130_fd_sc_hd__nor2_1
*CAP
1 *1082:D 0
2 *897:Y 0.000798417
3 *81:16 0.000798417
4 *81:16 *1016:A 0.000685107
5 *81:16 *1082:CLK 0.000602771
6 *81:16 *84:12 0.00146285
7 *81:16 *179:14 0.000161466
8 *81:16 *179:16 0.00020189
9 *81:16 *179:18 0.000366469
10 *81:16 *179:22 0.000735859
11 *81:16 *214:16 8.44271e-06
12 *1082:RESET_B *81:16 5.68426e-05
13 *40:12 *81:16 8.91963e-06
*RES
1 *897:Y *81:16 45.8179 
2 *81:16 *1082:D 9.3 
*END

*D_NET *82 0.000655566
*CONN
*I *1083:D I *D sky130_fd_sc_hd__dfrtp_4
*I *895:Y O *D sky130_fd_sc_hd__a211oi_1
*CAP
1 *1083:D 0.000228712
2 *895:Y 0.000228712
3 *1083:D *895:B1 7.34925e-05
4 *1083:D *966:C 0.000124649
5 *1083:D *195:22 0
*RES
1 *895:Y *1083:D 31.8321 
*END

*D_NET *83 0.0059325
*CONN
*I *1084:D I *D sky130_fd_sc_hd__dfrtp_4
*I *891:X O *D sky130_fd_sc_hd__xor2_1
*CAP
1 *1084:D 0.000796771
2 *891:X 0.00123856
3 *83:28 0.00203533
4 *1084:D *118:30 0
5 *1084:D *120:14 0.000134378
6 *1084:D *186:8 2.06747e-05
7 *83:28 *891:A 0.000180079
8 *83:28 *907:A_N 1.08413e-05
9 *83:28 *907:C 1.90936e-05
10 *83:28 *912:B1_N 6.8377e-06
11 *83:28 *934:A 4.41666e-05
12 *83:28 *942:B 1.28705e-05
13 *83:28 *972:A2 2.12005e-05
14 *83:28 *103:14 1.83136e-05
15 *83:28 *103:24 1.82463e-05
16 *83:28 *112:75 0.000219711
17 *83:28 *112:96 0.000224307
18 *83:28 *118:30 0.000269718
19 *83:28 *154:44 0.00014371
20 *83:28 *188:102 0.000186304
21 *83:28 *205:30 0
22 *1077:D *83:28 0.000152811
23 *20:152 *1084:D 9.76435e-06
24 *20:175 *1084:D 0.000139215
25 *20:175 *83:28 0
26 *36:26 *83:28 2.9597e-05
27 *51:20 *83:28 0
*RES
1 *891:X *83:28 49.05 
2 *83:28 *1084:D 21.1036 
*END

*D_NET *84 0.0245955
*CONN
*I *894:B I *D sky130_fd_sc_hd__nor2_1
*I *890:B I *D sky130_fd_sc_hd__and2_1
*I *897:A I *D sky130_fd_sc_hd__nor2_1
*I *889:X O *D sky130_fd_sc_hd__and3_1
*CAP
1 *894:B 0.000656741
2 *890:B 3.51595e-05
3 *897:A 3.02363e-05
4 *889:X 0.00104033
5 *84:58 0.00188169
6 *84:39 0.00143048
7 *84:29 0.00168726
8 *84:12 0.00258746
9 *890:B *103:38 1.94024e-05
10 *890:B *185:43 1.02504e-05
11 *890:B *189:61 2.04825e-05
12 *894:B *931:A2 5.52302e-05
13 *894:B *931:B1 5.52302e-05
14 *894:B *983:C 1.90936e-05
15 *894:B *110:12 4.66203e-05
16 *894:B *117:47 0.000500159
17 *894:B *123:12 4.13052e-05
18 *894:B *155:78 0.000365667
19 *894:B *194:16 0.00173408
20 *894:B *199:60 0.000196107
21 *894:B *199:78 0.000692576
22 *894:B *207:45 8.26607e-05
23 *897:A *897:B 1.87331e-05
24 *84:12 *995:B 0.000314907
25 *84:12 *1074:CLK 0
26 *84:12 *162:54 0.000911504
27 *84:12 *214:16 7.81939e-05
28 *84:29 *897:B 0.000137639
29 *84:29 *907:D 6.57032e-05
30 *84:29 *95:63 0.000598146
31 *84:29 *132:14 0.000175892
32 *84:29 *134:18 5.74499e-06
33 *84:29 *135:16 0.000717058
34 *84:29 *144:18 0.00151874
35 *84:29 *176:118 0.000739439
36 *84:29 *178:8 5.52238e-05
37 *84:29 *204:22 0.000730421
38 *84:39 *103:38 0
39 *84:39 *189:61 0.000118763
40 *84:58 *899:A1 0.000639319
41 *84:58 *941:A 0.000586626
42 *84:58 *941:B 0.000513591
43 *84:58 *214:72 0.000178847
44 *997:A *84:12 2.12647e-05
45 *1053:RESET_B *84:29 0.000729761
46 *1056:D *84:29 2.42516e-05
47 *1059:RESET_B *890:B 1.27529e-05
48 *1063:D *894:B 4.98669e-05
49 *28:18 *84:39 0
50 *40:12 *84:12 0.000433644
51 *47:18 *894:B 5.7986e-05
52 *67:16 *84:58 0.000510387
53 *81:16 *84:12 0.00146285
*RES
1 *889:X *84:12 46.1214 
2 *84:12 *897:A 10.0321 
3 *84:12 *84:29 47.4286 
4 *84:29 *84:39 7.33929 
5 *84:39 *890:B 14.5321 
6 *84:39 *84:58 28.5714 
7 *84:58 *894:B 40.5679 
*END

*D_NET *85 0.0120753
*CONN
*I *895:C1 I *D sky130_fd_sc_hd__a211oi_1
*I *891:B I *D sky130_fd_sc_hd__xor2_1
*I *890:X O *D sky130_fd_sc_hd__and2_1
*CAP
1 *895:C1 0.000140329
2 *891:B 0
3 *890:X 0.00139035
4 *85:42 0.00131621
5 *85:16 0.00284689
6 *895:C1 *895:A1 2.41665e-05
7 *895:C1 *895:A2 0.000259467
8 *895:C1 *895:B1 3.08664e-05
9 *895:C1 *1038:A 0.000195331
10 *85:16 *895:A1 0.00103143
11 *85:16 *929:C 0.00016366
12 *85:16 *966:A 4.00349e-05
13 *85:16 *967:B 0.000488156
14 *85:16 *1054:CLK 0
15 *85:16 *102:45 3.34781e-05
16 *85:16 *112:117 0
17 *85:16 *158:26 0.00127084
18 *85:16 *189:33 0
19 *85:16 *189:61 0
20 *85:16 *195:22 0
21 *85:16 *203:98 0.000166807
22 *85:42 *895:A2 9.86146e-05
23 *85:42 *927:A 1.94879e-05
24 *85:42 *929:C 7.40526e-05
25 *85:42 *934:A 3.35325e-05
26 *85:42 *942:B 0.000117913
27 *85:42 *1038:A 5.25675e-05
28 *85:42 *86:6 5.49489e-05
29 *85:42 *86:43 0.000266473
30 *85:42 *118:30 4.35597e-05
31 *85:42 *126:132 0.0010213
32 *85:42 *183:24 0.000292001
33 *85:42 *199:41 2.89114e-05
34 *85:42 *199:60 0.000106943
35 *85:42 *208:34 0.000107581
36 *1083:RESET_B *85:42 9.41642e-05
37 *67:16 *85:16 0.000265205
*RES
1 *890:X *85:16 49.9071 
2 *85:16 *85:42 42.5714 
3 *85:42 *891:B 9.3 
4 *85:16 *895:C1 14.0857 
*END

*D_NET *86 0.0368413
*CONN
*I *1011:A I *D sky130_fd_sc_hd__nor2_1
*I *1015:B1 I *D sky130_fd_sc_hd__a21oi_1
*I *1016:A I *D sky130_fd_sc_hd__inv_2
*I *893:B I *D sky130_fd_sc_hd__and2_1
*I *892:Y O *D sky130_fd_sc_hd__nor3_2
*CAP
1 *1011:A 0.00101591
2 *1015:B1 1.26062e-05
3 *1016:A 0.00321196
4 *893:B 0.000593951
5 *892:Y 1.21804e-05
6 *86:51 0.00795812
7 *86:43 0.00676824
8 *86:6 0.00162491
9 *893:B *910:C 2.63501e-05
10 *893:B *953:B1 0.000751417
11 *893:B *977:A 2.53512e-06
12 *893:B *87:32 7.99898e-05
13 *893:B *126:132 9.14771e-06
14 *893:B *189:10 4.19624e-06
15 *893:B *189:33 0.000134053
16 *893:B *200:35 0.000976589
17 *1011:A *101:18 0.000294339
18 *1011:A *102:45 0.00139315
19 *1011:A *116:34 0.000334311
20 *1011:A *173:90 9.83442e-05
21 *1011:A *187:47 6.69871e-05
22 *1011:A *195:12 6.53397e-05
23 *1011:A *210:34 4.40596e-05
24 *1011:A *217:14 0.000180072
25 *1015:B1 *1015:A1 4.99283e-06
26 *1015:B1 *1050:A 9.54798e-06
27 *1015:B1 *141:18 1.01912e-05
28 *1016:A *986:B 0
29 *1016:A *1017:A2 0.000451135
30 *1016:A *1082:CLK 2.38501e-05
31 *1016:A *129:26 0.00110249
32 *1016:A *133:30 0.000135028
33 *1016:A *160:18 0.000104729
34 *1016:A *173:90 6.86682e-05
35 *1016:A *179:35 8.48937e-05
36 *1016:A *184:10 0.000412377
37 *1016:A *188:24 8.92995e-05
38 *1016:A *204:22 0.000233284
39 *1016:A *215:32 2.06112e-05
40 *86:6 *126:132 5.49489e-05
41 *86:43 *892:A 0.000162042
42 *86:43 *942:C 0.000387028
43 *86:43 *988:B 0.00013063
44 *86:43 *1054:CLK 0.000105874
45 *86:43 *101:18 0.000940333
46 *86:43 *102:45 0.000389406
47 *86:43 *126:132 0.000165821
48 *86:43 *186:40 0.000153066
49 *86:43 *189:61 3.22265e-05
50 *86:43 *199:41 0.000182868
51 *86:51 *1009:A1 0.00153013
52 *86:51 *167:18 2.6809e-05
53 *86:51 *173:90 3.01276e-05
54 *1060:RESET_B *1011:A 8.71192e-05
55 *1074:RESET_B *1016:A 0.00210939
56 *1074:RESET_B *86:51 0.000238297
57 *1082:RESET_B *1016:A 2.31587e-05
58 *20:175 *893:B 6.09762e-05
59 *23:24 *1011:A 0.000284866
60 *23:24 *86:43 0.000185687
61 *23:24 *86:51 0
62 *36:26 *86:51 0
63 *55:12 *1011:A 1.21258e-05
64 *78:30 *1016:A 8.31798e-05
65 *78:30 *86:43 4.88232e-05
66 *81:16 *1016:A 0.000685107
67 *85:42 *86:6 5.49489e-05
68 *85:42 *86:43 0.000266473
*RES
1 *892:Y *86:6 9.83571 
2 *86:6 *893:B 28.2168 
3 *86:6 *86:43 26.6196 
4 *86:43 *86:51 15.5134 
5 *86:51 *1016:A 44.6811 
6 *86:51 *1015:B1 17.4868 
7 *86:43 *1011:A 28.4825 
*END

*D_NET *87 0.0208275
*CONN
*I *895:A2 I *D sky130_fd_sc_hd__a211oi_1
*I *1017:B1 I *D sky130_fd_sc_hd__a21oi_1
*I *898:B1 I *D sky130_fd_sc_hd__a21oi_1
*I *893:X O *D sky130_fd_sc_hd__and2_1
*CAP
1 *895:A2 0.000602576
2 *1017:B1 0
3 *898:B1 6.86885e-05
4 *893:X 0.000494761
5 *87:69 0.00141214
6 *87:61 0.00270656
7 *87:44 0.00208867
8 *87:32 0.0018229
9 *895:A2 *895:A1 0.000312767
10 *895:A2 *901:B1 9.64165e-05
11 *895:A2 *927:A 0.000501601
12 *895:A2 *929:C 0.00011444
13 *895:A2 *994:A2 8.46829e-05
14 *895:A2 *1038:A 2.67875e-05
15 *895:A2 *92:14 0.000402267
16 *898:B1 *960:B 1.46148e-05
17 *898:B1 *90:16 1.24368e-05
18 *898:B1 *132:14 0.000120755
19 *898:B1 *162:28 0.00012247
20 *898:B1 *214:98 5.33005e-05
21 *87:32 *953:B1 1.90096e-05
22 *87:32 *977:A 0.00018368
23 *87:32 *994:A1 2.51452e-05
24 *87:32 *994:A2 9.83388e-05
25 *87:32 *994:B1 2.2355e-05
26 *87:32 *92:14 0.000140088
27 *87:32 *183:24 6.90348e-06
28 *87:32 *195:28 0.000106519
29 *87:32 *200:35 3.71769e-05
30 *87:32 *201:34 9.88944e-05
31 *87:44 *934:A 8.19451e-05
32 *87:44 *970:A 1.90936e-05
33 *87:44 *994:A2 0.000167382
34 *87:44 *101:18 0.00011705
35 *87:44 *124:12 2.06178e-05
36 *87:44 *132:14 0.000721512
37 *87:44 *154:44 2.06178e-05
38 *87:44 *161:14 6.92539e-05
39 *87:44 *162:28 0.000711859
40 *87:44 *183:28 8.57949e-05
41 *87:61 *93:40 0.000765102
42 *87:61 *93:50 0.000844258
43 *87:69 *908:A_N 0.000362226
44 *87:69 *945:B 0.000118922
45 *87:69 *1017:A2 0.000180683
46 *87:69 *1028:A 1.00887e-05
47 *87:69 *1045:A 6.54574e-05
48 *87:69 *93:50 3.75924e-05
49 *87:69 *133:79 2.67751e-05
50 *87:69 *136:12 0.000515635
51 *87:69 *146:72 0.000213269
52 *87:69 *175:50 0.00186453
53 *87:69 *176:71 1.50087e-05
54 *87:69 *177:22 0.000493881
55 *87:69 *184:10 5.19522e-06
56 *87:69 *212:25 0.000176203
57 *893:B *87:32 7.99898e-05
58 *895:C1 *895:A2 0.000259467
59 *1003:A *87:69 0.000533706
60 *1062:RESET_B *87:69 0.00019291
61 *20:175 *87:32 0.000155959
62 *85:42 *895:A2 9.86146e-05
*RES
1 *893:X *87:32 37.2005 
2 *87:32 *87:44 27.1559 
3 *87:44 *898:B1 15.9786 
4 *87:44 *87:61 25.9643 
5 *87:61 *87:69 48.8036 
6 *87:69 *1017:B1 9.3 
7 *87:32 *895:A2 26.2821 
*END

*D_NET *88 0.00438111
*CONN
*I *895:B1 I *D sky130_fd_sc_hd__a211oi_1
*I *894:Y O *D sky130_fd_sc_hd__nor2_1
*CAP
1 *895:B1 0.00153415
2 *894:Y 0.00153415
3 *895:B1 *910:B 2.83786e-05
4 *895:B1 *931:A2 9.90367e-05
5 *895:B1 *966:C 2.15245e-05
6 *895:B1 *983:A 0
7 *895:B1 *1063:CLK 0.000195396
8 *895:B1 *142:16 0.000137983
9 *895:B1 *182:85 0.000481282
10 *895:B1 *196:108 0.000108229
11 *895:B1 *207:45 5.36293e-05
12 *895:C1 *895:B1 3.08664e-05
13 *1063:D *895:B1 7.29922e-05
14 *1063:RESET_B *895:B1 9.99644e-06
15 *1083:D *895:B1 7.34925e-05
*RES
1 *894:Y *895:B1 49.2964 
*END

*D_NET *89 0.00727037
*CONN
*I *897:B I *D sky130_fd_sc_hd__nor2_1
*I *896:Y O *D sky130_fd_sc_hd__a21oi_1
*CAP
1 *897:B 0.000490067
2 *896:Y 0.00111633
3 *89:16 0.0016064
4 *897:B *1091:A 0.000136727
5 *89:16 *1073:CLK 0.000105471
6 *89:16 *106:14 0.00135218
7 *89:16 *162:38 0.000421035
8 *89:16 *214:41 0.000979476
9 *897:A *897:B 1.87331e-05
10 *1056:D *897:B 0.000464722
11 *1073:D *89:16 2.22618e-05
12 *52:10 *89:16 0.000419328
13 *84:29 *897:B 0.000137639
*RES
1 *896:Y *89:16 43.05 
2 *89:16 *897:B 19.7107 
*END

*D_NET *90 0.00958243
*CONN
*I *899:B1 I *D sky130_fd_sc_hd__o21a_1
*I *898:Y O *D sky130_fd_sc_hd__a21oi_1
*CAP
1 *899:B1 0.000361653
2 *898:Y 0.00212803
3 *90:16 0.00248969
4 *899:B1 *899:A1 0.000221634
5 *899:B1 *971:A 0.00035013
6 *899:B1 *95:63 4.99764e-05
7 *899:B1 *176:118 5.49489e-05
8 *899:B1 *194:16 0.000276203
9 *90:16 *960:B 0.000196249
10 *90:16 *960:C 6.03558e-05
11 *90:16 *1090:A 5.14628e-05
12 *90:16 *176:135 0.000677619
13 *90:16 *203:98 0.000730028
14 *90:16 *208:28 0.000171969
15 *90:16 *209:66 0.000679334
16 *90:16 *214:98 0.000113821
17 *898:B1 *90:16 1.24368e-05
18 *960:A *90:16 3.97677e-05
19 *1067:D *90:16 0.00017985
20 *1070:RESET_B *899:B1 0.000303972
21 *20:152 *90:16 0.000433301
*RES
1 *898:Y *90:16 48.7821 
2 *90:16 *899:B1 23.3714 
*END

*D_NET *91 0.0228984
*CONN
*I *912:A1 I *D sky130_fd_sc_hd__a21bo_4
*I *1005:B I *D sky130_fd_sc_hd__or3_1
*I *1008:B2 I *D sky130_fd_sc_hd__a2bb2o_1
*I *900:Y O *D sky130_fd_sc_hd__inv_2
*CAP
1 *912:A1 0.00111318
2 *1005:B 0.00189972
3 *1008:B2 0.000367322
4 *900:Y 0
5 *91:27 0.00726888
6 *91:6 0.00462331
7 *912:A1 *140:28 4.38058e-05
8 *912:A1 *148:41 0.000894422
9 *912:A1 *180:45 0
10 *912:A1 *188:24 0.00051536
11 *912:A1 *191:90 0.00066871
12 *912:A1 *193:30 0.000233607
13 *912:A1 *204:22 0.000614554
14 *1005:B *944:B1 0.000816107
15 *1005:B *1005:A 7.10831e-05
16 *1005:B *166:69 7.57312e-05
17 *1008:B2 *900:A 0.000364259
18 *1008:B2 *920:B1 5.49544e-05
19 *1008:B2 *1008:A1_N 2.36643e-05
20 *1008:B2 *1008:A2_N 0.000428639
21 *1008:B2 *117:10 4.72818e-05
22 *1008:B2 *166:8 0.000182384
23 *1008:B2 *187:55 9.54798e-06
24 *91:27 *919:B 4.99283e-06
25 *91:27 *946:A 4.43585e-05
26 *91:27 *105:16 0.000209751
27 *91:27 *135:16 0.000217191
28 *91:27 *167:43 0
29 *91:27 *177:80 9.68015e-05
30 *91:27 *178:33 0.000384146
31 *91:27 *187:55 2.06112e-05
32 *91:27 *188:24 0.000133935
33 *91:27 *204:22 0.000278744
34 *91:27 *205:30 0
35 *1078:RESET_B *1005:B 0.000531245
36 *1080:RESET_B *1008:B2 0.000347187
37 *1086:A *1005:B 5.56545e-05
38 *22:14 *1005:B 0.000159398
39 *43:24 *1005:B 0
40 *51:20 *912:A1 1.41367e-05
41 *61:22 *91:27 0
42 *73:12 *1005:B 8.37336e-05
*RES
1 *900:Y *91:6 13.8 
2 *91:6 *1008:B2 24.7643 
3 *91:6 *91:27 18.2624 
4 *91:27 *1005:B 37.7314 
5 *91:27 *912:A1 43.8268 
*END

*D_NET *92 0.00907227
*CONN
*I *911:A1 I *D sky130_fd_sc_hd__o211ai_4
*I *901:X O *D sky130_fd_sc_hd__a21o_1
*CAP
1 *911:A1 0.000528474
2 *901:X 0.00092091
3 *92:14 0.00144938
4 *911:A1 *911:B1 0.000491361
5 *911:A1 *102:14 2.14658e-05
6 *92:14 *911:B1 0.000145407
7 *92:14 *927:A 0.00114128
8 *92:14 *929:B 0.000112171
9 *92:14 *977:A 4.87854e-05
10 *92:14 *978:B 0.0010113
11 *92:14 *994:A1 1.21258e-05
12 *92:14 *101:18 2.11419e-05
13 *92:14 *176:71 0.000145697
14 *92:14 *195:28 0.000128774
15 *92:14 *200:16 0.000217053
16 *92:14 *200:35 1.90936e-05
17 *895:A2 *92:14 0.000402267
18 *1075:D *92:14 2.55889e-05
19 *1075:RESET_B *92:14 8.0686e-05
20 *20:195 *92:14 0.00183219
21 *35:10 *92:14 0.000177025
22 *87:32 *92:14 0.000140088
*RES
1 *901:X *92:14 48.6571 
2 *92:14 *911:A1 20.8179 
*END

*D_NET *93 0.0402345
*CONN
*I *931:A2 I *D sky130_fd_sc_hd__a21oi_1
*I *928:B I *D sky130_fd_sc_hd__or2_1
*I *932:C I *D sky130_fd_sc_hd__and3_1
*I *904:A I *D sky130_fd_sc_hd__and2_1
*I *924:A_N I *D sky130_fd_sc_hd__and3b_1
*I *927:B I *D sky130_fd_sc_hd__nand2_1
*I *944:A2 I *D sky130_fd_sc_hd__a31o_1
*I *945:C I *D sky130_fd_sc_hd__and4_2
*I *902:X O *D sky130_fd_sc_hd__and4_4
*CAP
1 *931:A2 0.000627219
2 *928:B 1.21804e-05
3 *932:C 0.00036939
4 *904:A 0
5 *924:A_N 0
6 *927:B 0.000512576
7 *944:A2 0
8 *945:C 0
9 *902:X 3.9086e-05
10 *93:126 0.00149816
11 *93:110 0.0019844
12 *93:108 0.000847173
13 *93:68 0.00131139
14 *93:50 0.00219766
15 *93:40 0.00218572
16 *93:30 0.00128487
17 *93:20 0.00252135
18 *93:10 0.00197152
19 *927:B *934:A 0
20 *927:B *934:B 5.28442e-06
21 *927:B *977:A 3.76045e-05
22 *927:B *1019:A 0.000123295
23 *927:B *148:41 0.000885074
24 *928:B *932:B 5.49489e-05
25 *928:B *1093:A 5.49489e-05
26 *931:A2 *931:B1 0.000508798
27 *931:A2 *116:34 9.35114e-06
28 *932:C *896:A1 5.49489e-05
29 *932:C *906:D 0.000182921
30 *932:C *917:C 8.26157e-05
31 *932:C *932:A 5.33005e-05
32 *932:C *105:16 0.000112134
33 *932:C *183:81 0
34 *932:C *214:62 0.000195548
35 *93:10 *983:B 0.000126956
36 *93:10 *1060:CLK 0.000126956
37 *93:20 *910:A 5.64283e-05
38 *93:20 *930:A 2.69072e-05
39 *93:20 *931:B1 9.76689e-05
40 *93:20 *981:C1 0.000622775
41 *93:20 *983:B 5.51688e-05
42 *93:20 *117:47 0
43 *93:20 *145:10 0.00112628
44 *93:20 *202:30 0.000265744
45 *93:30 *924:B 5.49544e-05
46 *93:30 *103:38 9.14771e-06
47 *93:30 *165:33 0.000208499
48 *93:40 *972:A2 1.89507e-06
49 *93:40 *976:A 0.000472219
50 *93:40 *103:24 0.000221927
51 *93:40 *120:14 0.000178425
52 *93:40 *122:18 0.000300204
53 *93:40 *144:18 0
54 *93:40 *146:28 0.000542803
55 *93:40 *146:38 0.000218685
56 *93:40 *165:33 0.000845138
57 *93:40 *183:61 0.000749378
58 *93:50 *911:C1 0.000163596
59 *93:50 *916:B 0.000726751
60 *93:50 *944:A1 0.000181762
61 *93:50 *1004:A1 1.21859e-05
62 *93:50 *128:12 8.6229e-06
63 *93:50 *143:8 4.61501e-05
64 *93:50 *146:72 8.55871e-05
65 *93:50 *177:22 0.000378279
66 *93:50 *187:22 5.05867e-05
67 *93:68 *916:A 3.08664e-05
68 *93:68 *916:B 0.000430856
69 *93:68 *944:A3 2.59355e-05
70 *93:68 *947:B 1.58163e-05
71 *93:108 *906:D 0.000480313
72 *93:108 *960:C 7.69776e-06
73 *93:108 *970:C 0.000803436
74 *93:108 *114:20 0.000779083
75 *93:108 *189:61 0
76 *93:108 *206:18 0
77 *93:110 *906:D 0.000178395
78 *93:110 *103:52 0
79 *93:110 *208:93 0
80 *93:126 *939:A2 1.90936e-05
81 *93:126 *950:B 1.88175e-05
82 *93:126 *979:A 4.53593e-05
83 *93:126 *979:B 3.08664e-05
84 *93:126 *1015:A1 0.00108342
85 *93:126 *1050:A 2.59169e-05
86 *93:126 *103:52 0.000155006
87 *93:126 *105:16 4.26825e-05
88 *93:126 *109:10 0.000230207
89 *93:126 *133:30 0.000256703
90 *93:126 *138:14 0
91 *93:126 *173:90 4.38568e-05
92 *93:126 *177:12 0.000119904
93 *93:126 *183:81 5.04347e-05
94 *93:126 *189:71 0
95 *93:126 *193:16 0
96 *93:126 *203:24 0
97 *93:126 *204:43 1.80032e-05
98 *93:126 *208:93 2.08116e-05
99 *894:B *931:A2 5.52302e-05
100 *895:B1 *931:A2 9.90367e-05
101 *1058:RESET_B *93:126 4.83905e-05
102 *1059:RESET_B *93:108 0
103 *1067:RESET_B *93:20 0.000239842
104 *1067:RESET_B *93:30 0.000115235
105 *1075:D *927:B 4.63699e-05
106 *1081:RESET_B *93:68 0.00190463
107 *26:16 *93:68 0.000729035
108 *43:24 *93:68 0.000603543
109 *47:18 *93:20 7.45651e-05
110 *50:28 *93:20 0.000620638
111 *50:28 *93:30 0.00054225
112 *51:20 *927:B 0.000910188
113 *54:20 *93:108 0
114 *87:61 *93:40 0.000765102
115 *87:61 *93:50 0.000844258
116 *87:69 *93:50 3.75924e-05
*RES
1 *902:X *93:10 19.9429 
2 *93:10 *93:20 28.7312 
3 *93:20 *93:30 11.2772 
4 *93:30 *93:40 34.6786 
5 *93:40 *93:50 31.25 
6 *93:50 *93:68 49.8929 
7 *93:68 *945:C 13.8 
8 *93:50 *944:A2 9.3 
9 *93:40 *927:B 34.6214 
10 *93:30 *924:A_N 9.3 
11 *93:20 *93:108 20.6868 
12 *93:108 *93:110 2.40179 
13 *93:110 *93:126 41.7768 
14 *93:126 *904:A 9.3 
15 *93:110 *932:C 20.6482 
16 *93:108 *928:B 14.3357 
17 *93:10 *931:A2 20.9429 
*END

*D_NET *94 0.018353
*CONN
*I *904:B I *D sky130_fd_sc_hd__and2_1
*I *944:A3 I *D sky130_fd_sc_hd__a31o_1
*I *945:D I *D sky130_fd_sc_hd__and4_2
*I *903:X O *D sky130_fd_sc_hd__and4_1
*CAP
1 *904:B 0.000974969
2 *944:A3 0.000672727
3 *945:D 0.000690232
4 *903:X 0
5 *94:10 0.00380589
6 *94:4 0.0034179
7 *904:B *903:C 0.00055613
8 *904:B *979:A 0
9 *904:B *979:B 0.000228876
10 *904:B *1040:A 0.000474756
11 *904:B *95:21 0
12 *904:B *109:10 0.000126509
13 *904:B *126:47 8.6281e-05
14 *904:B *173:12 0
15 *904:B *215:40 5.20298e-05
16 *904:B *220:10 0.000440903
17 *944:A3 *908:B 0.000223599
18 *944:A3 *944:A1 1.97695e-05
19 *944:A3 *944:B1 0.000500307
20 *944:A3 *194:49 0.000387162
21 *944:A3 *200:20 2.99773e-05
22 *945:D *945:A 0.00048068
23 *945:D *945:B 6.46424e-05
24 *945:D *166:69 7.83659e-05
25 *94:10 *903:C 0.000138606
26 *94:10 *980:C 0.00186207
27 *94:10 *985:A 0
28 *94:10 *1034:A 0.000292547
29 *94:10 *121:12 0
30 *94:10 *156:14 2.8266e-06
31 *94:10 *166:69 0
32 *94:10 *219:16 0.00015946
33 *1069:RESET_B *904:B 7.03891e-05
34 *22:14 *944:A3 0.000940007
35 *22:14 *94:10 0.000190805
36 *62:14 *944:A3 0.00124508
37 *62:14 *945:D 3.69697e-05
38 *62:14 *94:10 7.6644e-05
39 *93:68 *944:A3 2.59355e-05
*RES
1 *903:X *94:4 9.3 
2 *94:4 *94:10 37.1607 
3 *94:10 *945:D 32.5143 
4 *94:10 *944:A3 39.4786 
5 *94:4 *904:B 37.3 
*END

*D_NET *95 0.0234021
*CONN
*I *941:B I *D sky130_fd_sc_hd__nand2_1
*I *909:A2 I *D sky130_fd_sc_hd__o31a_1
*I *940:B I *D sky130_fd_sc_hd__or2_1
*I *939:C1 I *D sky130_fd_sc_hd__a211oi_1
*I *904:X O *D sky130_fd_sc_hd__and2_1
*CAP
1 *941:B 0.000411002
2 *909:A2 0.00120824
3 *940:B 0
4 *939:C1 0.000313612
5 *904:X 0.00026677
6 *95:63 0.0021825
7 *95:32 0.00315236
8 *95:21 0.00115466
9 *95:8 0.00156243
10 *909:A2 *905:B 1.21436e-05
11 *909:A2 *909:A3 0.000558829
12 *909:A2 *176:71 1.98839e-05
13 *909:A2 *176:82 0.000145042
14 *909:A2 *176:89 0.000340995
15 *909:A2 *176:118 0.000260574
16 *909:A2 *193:30 0.000325244
17 *939:C1 *921:B 7.44934e-05
18 *939:C1 *979:B 0.000479639
19 *939:C1 *109:10 0.00107913
20 *939:C1 *173:12 7.44934e-05
21 *939:C1 *188:63 0.00010133
22 *941:B *941:A 0.00134095
23 *941:B *123:12 0.00073194
24 *95:8 *979:B 0.000397546
25 *95:21 *103:66 0.000647467
26 *95:21 *135:16 0.000316944
27 *95:21 *173:12 0.000183735
28 *95:21 *197:20 0.000345246
29 *95:21 *197:41 6.63719e-05
30 *95:32 *135:16 0.000382407
31 *95:32 *178:14 1.1399e-05
32 *95:63 *899:A1 9.91086e-05
33 *95:63 *905:B 0.000178519
34 *95:63 *130:12 9.91086e-05
35 *95:63 *135:16 4.05174e-06
36 *95:63 *176:118 0.000442845
37 *95:63 *178:14 0.000142974
38 *95:63 *193:22 5.71472e-05
39 *95:63 *193:30 5.52302e-05
40 *95:63 *194:16 0.000472446
41 *899:B1 *95:63 4.99764e-05
42 *904:B *95:21 0
43 *20:22 *95:21 0.000390611
44 *20:50 *95:21 0.000870433
45 *20:82 *95:21 0.000202314
46 *20:129 *95:21 0.000114356
47 *20:129 *95:32 0.000336361
48 *64:8 *909:A2 0.000598704
49 *67:16 *909:A2 1.33343e-05
50 *67:16 *95:63 1.5424e-05
51 *84:29 *95:63 0.000598146
52 *84:58 *941:B 0.000513591
*RES
1 *904:X *95:8 17.6214 
2 *95:8 *939:C1 25.2286 
3 *95:8 *95:21 25.625 
4 *95:21 *940:B 13.8 
5 *95:21 *95:32 9.78571 
6 *95:32 *909:A2 32.0857 
7 *95:32 *95:63 42.8929 
8 *95:63 *941:B 23.7107 
*END

*D_NET *96 0.0109322
*CONN
*I *970:C I *D sky130_fd_sc_hd__and4_1
*I *906:D I *D sky130_fd_sc_hd__or4_1
*I *905:X O *D sky130_fd_sc_hd__and4_1
*CAP
1 *970:C 0.000890386
2 *906:D 0.000661333
3 *905:X 0.00055308
4 *96:12 0.0021048
5 *906:D *903:C 0
6 *906:D *906:C 2.06112e-05
7 *906:D *959:B 1.38032e-05
8 *906:D *1015:A1 0
9 *906:D *189:61 1.06841e-05
10 *906:D *189:63 0.000740086
11 *906:D *192:61 0.0004398
12 *970:C *960:C 2.82202e-05
13 *970:C *970:D 0.000100383
14 *970:C *154:18 0.00017814
15 *970:C *167:18 5.33005e-05
16 *970:C *185:27 0.00179473
17 *970:C *189:61 1.721e-05
18 *970:C *192:61 9.25014e-06
19 *970:C *203:98 0.000965303
20 *96:12 *941:A 0.000188622
21 *96:12 *185:27 8.33099e-05
22 *96:12 *185:43 2.59355e-05
23 *96:12 *192:61 0.000136478
24 *96:12 *193:22 0.000135028
25 *96:12 *203:48 0.000136676
26 *932:C *906:D 0.000182921
27 *93:108 *906:D 0.000480313
28 *93:108 *970:C 0.000803436
29 *93:110 *906:D 0.000178395
*RES
1 *905:X *96:12 22.6929 
2 *96:12 *906:D 30.0143 
3 *96:12 *970:C 42.05 
*END

*D_NET *97 0.00961648
*CONN
*I *909:A3 I *D sky130_fd_sc_hd__o31a_1
*I *906:X O *D sky130_fd_sc_hd__or4_1
*CAP
1 *909:A3 0.0010808
2 *906:X 0.00165339
3 *97:8 0.00273419
4 *909:A3 *148:10 0.000161729
5 *909:A3 *148:35 0.00115917
6 *909:A3 *176:61 0
7 *909:A3 *176:71 0.00034188
8 *909:A3 *176:82 0.000226867
9 *909:A3 *215:22 0
10 *97:8 *906:C 9.83388e-05
11 *97:8 *959:A 3.63775e-05
12 *97:8 *980:B 0.000180777
13 *97:8 *152:28 9.41642e-05
14 *97:8 *162:54 1.98839e-05
15 *97:8 *164:12 0.000183477
16 *97:8 *176:6 0.000139631
17 *97:8 *177:12 0.000181837
18 *97:8 *177:16 4.61749e-05
19 *97:8 *190:20 0.000327159
20 *97:8 *201:40 0.000125547
21 *97:8 *201:56 0.000139907
22 *909:A2 *909:A3 0.000558829
23 *1062:D *97:8 0.000126352
*RES
1 *906:X *97:8 42.2643 
2 *97:8 *909:A3 37.3 
*END

*D_NET *98 0.00464567
*CONN
*I *908:C I *D sky130_fd_sc_hd__and4b_1
*I *907:X O *D sky130_fd_sc_hd__and4b_1
*CAP
1 *908:C 0
2 *907:X 0.00109778
3 *98:12 0.00109778
4 *98:12 *984:B 0.000394969
5 *98:12 *1025:A 9.18679e-05
6 *98:12 *100:10 0.000788745
7 *98:12 *154:44 0.000557361
8 *98:12 *161:14 0
9 *98:12 *165:12 0.000568772
10 *933:A *98:12 2.06791e-05
11 *1077:RESET_B *98:12 2.77258e-05
12 *54:20 *98:12 0
*RES
1 *907:X *98:12 44.2464 
2 *98:12 *908:C 9.3 
*END

*D_NET *99 0.00563239
*CONN
*I *909:B1 I *D sky130_fd_sc_hd__o31a_1
*I *908:X O *D sky130_fd_sc_hd__and4b_1
*CAP
1 *909:B1 1.67213e-05
2 *908:X 0.00133588
3 *99:18 0.0013526
4 *909:B1 *176:71 5.33005e-05
5 *909:B1 *212:37 2.89016e-05
6 *99:18 *908:A_N 0.000650236
7 *99:18 *916:B 0.000469765
8 *99:18 *948:A 0.000209536
9 *99:18 *133:79 0.000168939
10 *1053:RESET_B *99:18 0.000628456
11 *1064:RESET_B *99:18 0.000632152
12 *35:10 *99:18 8.5896e-05
*RES
1 *908:X *99:18 48.4071 
2 *99:18 *909:B1 14.3357 
*END

*D_NET *100 0.00670043
*CONN
*I *911:A2 I *D sky130_fd_sc_hd__o211ai_4
*I *909:X O *D sky130_fd_sc_hd__o31a_1
*CAP
1 *911:A2 4.26984e-05
2 *909:X 0.00182595
3 *100:10 0.00186865
4 *100:10 *933:C 0
5 *100:10 *985:A 0.000394712
6 *100:10 *155:18 0.000184448
7 *100:10 *161:14 0
8 *100:10 *176:71 0.000329299
9 *100:10 *194:49 3.70808e-05
10 *100:10 *212:29 2.61099e-05
11 *32:16 *100:10 0.00120274
12 *98:12 *100:10 0.000788745
*RES
1 *909:X *100:10 47.3536 
2 *100:10 *911:A2 14.3357 
*END

*D_NET *101 0.0165616
*CONN
*I *998:A I *D sky130_fd_sc_hd__and2_1
*I *911:B1 I *D sky130_fd_sc_hd__o211ai_4
*I *910:X O *D sky130_fd_sc_hd__and4_2
*CAP
1 *998:A 0
2 *911:B1 0.000209796
3 *910:X 0.00354193
4 *101:18 0.00375173
5 *911:B1 *911:C1 7.03393e-05
6 *911:B1 *102:14 0.000226513
7 *911:B1 *176:71 6.14702e-06
8 *101:18 *902:D 0.000197084
9 *101:18 *907:A_N 0.0014708
10 *101:18 *907:C 8.76591e-06
11 *101:18 *933:C 9.71378e-06
12 *101:18 *934:A 4.69925e-05
13 *101:18 *942:C 0.000542031
14 *101:18 *966:A 9.96606e-05
15 *101:18 *983:C 9.60875e-05
16 *101:18 *993:B 4.58508e-05
17 *101:18 *102:14 0.000172827
18 *101:18 *102:45 0.00016402
19 *101:18 *116:34 0.000574067
20 *101:18 *154:18 0.000301438
21 *101:18 *161:14 0.000611301
22 *101:18 *184:88 4.8817e-05
23 *101:18 *195:12 0.00019556
24 *101:18 *197:41 0.000260245
25 *101:18 *199:41 0.000176548
26 *911:A1 *911:B1 0.000491361
27 *1011:A *101:18 0.000294339
28 *1075:RESET_B *101:18 2.14879e-05
29 *23:24 *101:18 0.00152093
30 *35:10 *911:B1 0.000168853
31 *35:10 *101:18 1.24469e-05
32 *86:43 *101:18 0.000940333
33 *87:44 *101:18 0.00011705
34 *92:14 *911:B1 0.000145407
35 *92:14 *101:18 2.11419e-05
*RES
1 *910:X *101:18 36.0178 
2 *101:18 *911:B1 21.1214 
3 *101:18 *998:A 13.8 
*END

*D_NET *102 0.0243884
*CONN
*I *223:DIODE I *D sky130_fd_sc_hd__diode_2
*I *1008:B1 I *D sky130_fd_sc_hd__a2bb2o_1
*I *912:A2 I *D sky130_fd_sc_hd__a21bo_4
*I *911:Y O *D sky130_fd_sc_hd__o211ai_4
*CAP
1 *223:DIODE 0
2 *1008:B1 0.000152172
3 *912:A2 0.00038171
4 *911:Y 0.000284134
5 *102:51 0.00110963
6 *102:45 0.0046117
7 *102:14 0.00432008
8 *912:A2 *154:44 0.000120368
9 *912:A2 *175:80 4.71822e-05
10 *912:A2 *215:12 9.71197e-05
11 *912:A2 *215:18 0.000150481
12 *1008:B1 *920:A1 9.83442e-05
13 *1008:B1 *920:B1 4.4873e-05
14 *102:14 *911:C1 0.000270326
15 *102:14 *933:C 0.000666538
16 *102:14 *116:34 0.000113967
17 *102:14 *176:71 8.23597e-06
18 *102:45 *907:A_N 9.1079e-05
19 *102:45 *907:C 0.00133761
20 *102:45 *933:C 0.000927661
21 *102:45 *934:A 0
22 *102:45 *942:C 0
23 *102:45 *951:C 0.000123303
24 *102:45 *966:A 0.000554388
25 *102:45 *1054:CLK 0
26 *102:45 *116:34 0.000436654
27 *102:45 *131:22 1.83179e-05
28 *102:45 *210:34 9.78012e-06
29 *102:51 *920:A1 0.000215129
30 *102:51 *920:A2 0.000502462
31 *102:51 *177:80 1.69321e-05
32 *102:51 *213:12 0.00245492
33 an[2] *102:45 0
34 an[7] *102:51 2.06178e-05
35 *911:A1 *102:14 2.14658e-05
36 *911:B1 *102:14 0.000226513
37 *1011:A *102:45 0.00139315
38 *21:16 *102:51 0.00109693
39 *35:10 *102:14 9.47364e-06
40 *36:26 *102:45 0.00167616
41 *60:16 *912:A2 1.92905e-05
42 *85:16 *102:45 3.34781e-05
43 *86:43 *102:45 0.000389406
44 *101:18 *102:14 0.000172827
45 *101:18 *102:45 0.00016402
*RES
1 *911:Y *102:14 21.132 
2 *102:14 *912:A2 24.7368 
3 *102:14 *102:45 23.5029 
4 *102:45 *102:51 38.7411 
5 *102:51 *1008:B1 11.4964 
6 *102:51 *223:DIODE 9.3 
*END

*D_NET *103 0.0355117
*CONN
*I *942:B I *D sky130_fd_sc_hd__and3_1
*I *924:B I *D sky130_fd_sc_hd__and3b_1
*I *990:A I *D sky130_fd_sc_hd__and3_1
*I *917:B I *D sky130_fd_sc_hd__and3_1
*I *913:A I *D sky130_fd_sc_hd__clkinv_4
*I *921:B I *D sky130_fd_sc_hd__and3_1
*I *1006:A I *D sky130_fd_sc_hd__and3_1
*I *975:A I *D sky130_fd_sc_hd__and3_1
*I *986:A I *D sky130_fd_sc_hd__and3_1
*I *926:A I *D sky130_fd_sc_hd__buf_2
*I *912:X O *D sky130_fd_sc_hd__a21bo_4
*CAP
1 *942:B 0.000549721
2 *924:B 3.96417e-05
3 *990:A 0.000930987
4 *917:B 0.000357979
5 *913:A 0
6 *921:B 0.00111579
7 *1006:A 0
8 *975:A 0.000451816
9 *986:A 0
10 *926:A 0.000197112
11 *912:X 0.000129655
12 *103:113 0.00146998
13 *103:76 0.000217343
14 *103:74 0.000768036
15 *103:68 0.000699987
16 *103:66 0.00100563
17 *103:52 0.00204233
18 *103:38 0.00265352
19 *103:24 0.00225645
20 *103:14 0.00190218
21 *917:B *903:C 0.000446753
22 *917:B *932:B 7.47248e-05
23 *917:B *957:A 1.94945e-05
24 *917:B *1005:A 0.000581554
25 *917:B *140:28 3.18454e-05
26 *917:B *214:43 3.45371e-05
27 *917:B *214:62 4.58194e-05
28 *921:B *921:C 3.94968e-06
29 *921:B *979:B 0.000254523
30 *921:B *109:10 0.00118014
31 *921:B *173:12 1.82712e-05
32 *921:B *197:20 0.00011889
33 *921:B *221:22 0.000119716
34 *926:A *109:10 4.24619e-05
35 *926:A *112:14 0.000100879
36 *926:A *148:10 0
37 *926:A *199:18 7.67307e-06
38 *942:B *893:A 0.000264327
39 *942:B *934:A 0.000107024
40 *942:B *994:A1 7.29646e-05
41 *942:B *118:30 0.000224348
42 *942:B *126:132 1.66524e-05
43 *942:B *183:24 3.06878e-06
44 *942:B *183:28 7.29646e-05
45 *975:A *975:C 0.000107176
46 *975:A *980:B 7.70035e-05
47 *975:A *148:10 0
48 *975:A *148:35 0
49 *975:A *162:38 0.000141196
50 *975:A *162:54 2.72341e-05
51 *975:A *164:12 0
52 *975:A *170:16 0.000272174
53 *975:A *195:73 1.30519e-05
54 *975:A *199:18 0.000130373
55 *975:A *201:56 0.000141196
56 *975:A *219:12 9.97363e-06
57 *990:A *990:C 0.000164987
58 *990:A *1080:CLK 5.9455e-05
59 *990:A *114:20 1.94945e-05
60 *990:A *181:92 0.000122084
61 *990:A *189:61 6.46173e-05
62 *990:A *191:43 6.30931e-05
63 *990:A *205:12 6.28766e-05
64 *990:A *205:30 0.000208166
65 *990:A *209:18 0.000213973
66 *103:14 *891:A 1.11476e-05
67 *103:14 *912:B1_N 0.000131204
68 *103:24 *976:A 0.000472219
69 *103:24 *112:75 4.84073e-05
70 *103:24 *120:14 0.000934439
71 *103:24 *126:132 2.83284e-06
72 *103:24 *158:26 0.000313676
73 *103:24 *188:14 0.000327379
74 *103:24 *188:102 0.000339634
75 *103:24 *205:30 0.000687302
76 *103:24 *214:72 6.57032e-05
77 *103:24 *214:98 4.11486e-05
78 *103:38 *158:26 0.000771805
79 *103:38 *181:92 2.00602e-05
80 *103:38 *185:43 3.23712e-05
81 *103:38 *189:61 0
82 *103:38 *203:48 3.5848e-05
83 *103:38 *205:30 2.87949e-05
84 *103:52 *946:A 0
85 *103:52 *1015:A1 0
86 *103:52 *114:20 0
87 *103:52 *183:81 0.000184514
88 *103:52 *185:43 9.61175e-05
89 *103:52 *203:24 0
90 *103:52 *206:18 0.000121877
91 *103:52 *208:93 1.03904e-05
92 *103:66 *1005:A 0.000402206
93 *103:66 *112:137 0.000127054
94 *103:66 *140:28 0.0002855
95 *103:66 *164:37 2.12087e-05
96 *103:66 *197:20 0.000649297
97 *103:68 *112:137 0.000122591
98 *103:68 *164:37 6.57032e-05
99 *103:74 *918:A 0.000412472
100 *103:74 *112:137 0.000354815
101 *103:74 *164:37 0.000833567
102 *103:76 *918:A 9.83442e-05
103 *103:76 *164:37 9.66977e-05
104 *103:113 *1006:C 0.000670256
105 *103:113 *1010:A 1.03403e-05
106 *103:113 *169:18 0.000693171
107 *890:B *103:38 1.94024e-05
108 *939:C1 *921:B 7.44934e-05
109 *1059:RESET_B *103:52 3.19909e-05
110 *1078:D *926:A 5.65955e-05
111 *20:8 *103:66 9.58126e-05
112 *20:104 *103:52 5.52646e-05
113 *28:18 *103:24 0.0011786
114 *28:18 *103:38 0
115 *43:24 *103:38 2.63501e-05
116 *45:14 *975:A 0
117 *53:22 *103:66 0.00037672
118 *61:22 *990:A 0.000270161
119 *80:14 *103:38 2.14624e-05
120 *83:28 *942:B 1.28705e-05
121 *83:28 *103:14 1.83136e-05
122 *83:28 *103:24 1.82463e-05
123 *84:39 *103:38 0
124 *85:42 *942:B 0.000117913
125 *93:30 *924:B 5.49544e-05
126 *93:30 *103:38 9.14771e-06
127 *93:40 *103:24 0.000221927
128 *93:110 *103:52 0
129 *93:126 *103:52 0.000155006
130 *95:21 *103:66 0.000647467
*RES
1 *912:X *103:14 16.6571 
2 *103:14 *103:24 42.75 
3 *103:24 *103:38 26.2267 
4 *103:38 *103:52 20.9546 
5 *103:52 *103:66 19.5887 
6 *103:66 *103:68 1.35714 
7 *103:68 *103:74 9.71429 
8 *103:74 *103:76 0.946429 
9 *103:76 *926:A 21.9964 
10 *103:76 *986:A 9.3 
11 *103:74 *975:A 27.3893 
12 *103:68 *103:113 18.5357 
13 *103:113 *1006:A 9.3 
14 *103:113 *921:B 34.9964 
15 *103:66 *913:A 9.3 
16 *103:52 *917:B 19.8457 
17 *103:38 *990:A 37.6708 
18 *103:24 *924:B 14.3357 
19 *103:14 *942:B 31.2464 
*END

*D_NET *104 0.00352698
*CONN
*I *917:A I *D sky130_fd_sc_hd__and3_1
*I *915:Y O *D sky130_fd_sc_hd__nand2_1
*CAP
1 *917:A 0.000767708
2 *915:Y 0.000767708
3 *917:A *932:B 0.000330436
4 *917:A *957:A 0.0001845
5 *917:A *1080:CLK 0.000526916
6 *917:A *181:92 0.000226985
7 *917:A *189:61 0.000289714
8 *917:A *189:63 1.19432e-05
9 *917:A *191:43 0.000421065
*RES
1 *915:Y *917:A 44.2964 
*END

*D_NET *105 0.0147032
*CONN
*I *917:C I *D sky130_fd_sc_hd__and3_1
*I *916:X O *D sky130_fd_sc_hd__or2_1
*CAP
1 *917:C 9.82181e-05
2 *916:X 0.0044356
3 *105:16 0.00453381
4 *917:C *896:A1 2.96677e-05
5 *105:16 *1005:A 0.000961059
6 *105:16 *131:22 0.000816464
7 *105:16 *135:16 0.00113079
8 *932:C *917:C 8.26157e-05
9 *932:C *105:16 0.000112134
10 *1081:RESET_B *105:16 0.00132029
11 *22:14 *105:16 0
12 *26:16 *105:16 0.000930111
13 *32:16 *105:16 0
14 *91:27 *105:16 0.000209751
15 *93:126 *105:16 4.26825e-05
*RES
1 *916:X *105:16 47.6198 
2 *105:16 *917:C 15.0411 
*END

*D_NET *106 0.0104746
*CONN
*I *918:A I *D sky130_fd_sc_hd__clkbuf_1
*I *917:X O *D sky130_fd_sc_hd__and3_1
*CAP
1 *918:A 0.000468188
2 *917:X 0.00092565
3 *106:14 0.00139384
4 *918:A *922:A 0.00152846
5 *918:A *997:C 0.00127509
6 *918:A *112:14 0.000163727
7 *918:A *112:137 9.60939e-05
8 *918:A *164:37 0.000145466
9 *106:14 *896:A1 0.000174917
10 *106:14 *896:B1 0.000642642
11 *106:14 *112:18 5.48232e-05
12 *106:14 *152:28 1.90936e-05
13 *106:14 *166:59 0.000194115
14 *106:14 *184:66 6.48037e-05
15 *106:14 *214:41 0.000180448
16 *106:14 *214:43 3.45371e-05
17 *1073:D *106:14 6.05161e-06
18 *1073:RESET_B *106:14 0.000193942
19 *46:10 *106:14 0.000347832
20 *63:14 *106:14 0.000701844
21 *89:16 *106:14 0.00135218
22 *103:74 *918:A 0.000412472
23 *103:76 *918:A 9.83442e-05
*RES
1 *917:X *106:14 46.8714 
2 *106:14 *918:A 28.3179 
*END

*D_NET *107 0.00294531
*CONN
*I *921:A I *D sky130_fd_sc_hd__and3_1
*I *919:Y O *D sky130_fd_sc_hd__nand3_1
*CAP
1 *921:A 0.00108019
2 *919:Y 0.00108019
3 *921:A *919:A 3.69047e-06
4 *921:A *919:B 3.03894e-05
5 *921:A *921:C 5.66907e-05
6 *921:A *1068:CLK 0.000446215
7 *921:A *119:41 0
8 *921:A *218:16 0.000228876
9 *921:A *220:37 1.9079e-05
10 *70:16 *921:A 0
*RES
1 *919:Y *921:A 42.8321 
*END

*D_NET *108 0.00683244
*CONN
*I *921:C I *D sky130_fd_sc_hd__and3_1
*I *920:X O *D sky130_fd_sc_hd__a21o_1
*CAP
1 *921:C 0.000815574
2 *920:X 0.00109627
3 *108:16 0.00191184
4 *921:C *1002:B 0.000141036
5 *921:C *1068:CLK 0.000381272
6 *921:C *221:22 0.000169636
7 *108:16 *935:B 0.000319422
8 *108:16 *1002:A 0.000246981
9 *108:16 *1095:A 0
10 *108:16 *168:14 0
11 *108:16 *172:10 0.000597167
12 *108:16 *177:117 0.000249726
13 *108:16 *192:18 2.09722e-05
14 *108:16 *207:18 0.000128168
15 *921:A *921:C 5.66907e-05
16 *921:B *921:C 3.94968e-06
17 *1057:D *108:16 0.000565535
18 *1068:D *108:16 0
19 *70:16 *921:C 7.88091e-05
20 *74:14 *108:16 4.93964e-05
*RES
1 *920:X *108:16 47.9429 
2 *108:16 *921:C 29.9429 
*END

*D_NET *109 0.0107939
*CONN
*I *922:A I *D sky130_fd_sc_hd__clkbuf_1
*I *921:X O *D sky130_fd_sc_hd__and3_1
*CAP
1 *922:A 0.00048499
2 *921:X 0.000980692
3 *109:10 0.00146568
4 *922:A *986:B 4.75955e-05
5 *922:A *987:A 0.000981219
6 *922:A *997:C 0.000130001
7 *922:A *112:14 5.33005e-05
8 *109:10 *979:B 0.00011534
9 *109:10 *982:A1 0
10 *109:10 *1014:A2 1.03926e-05
11 *109:10 *112:14 9.92257e-05
12 *109:10 *133:30 7.19728e-05
13 *109:10 *169:18 9.67754e-05
14 *109:10 *173:18 2.4654e-05
15 *109:10 *184:33 0
16 *109:10 *184:66 0
17 *109:10 *188:63 0.000158532
18 *109:10 *199:18 0.000662208
19 *904:B *109:10 0.000126509
20 *918:A *922:A 0.00152846
21 *921:B *109:10 0.00118014
22 *926:A *109:10 4.24619e-05
23 *939:C1 *109:10 0.00107913
24 *997:A *109:10 0.000228821
25 *1074:RESET_B *109:10 9.81721e-06
26 *20:22 *109:10 0.000615791
27 *32:12 *922:A 0.000181796
28 *40:12 *922:A 0.000188159
29 *93:126 *109:10 0.000230207
*RES
1 *921:X *109:10 46.6571 
2 *109:10 *922:A 31.6036 
*END

*D_NET *110 0.00710881
*CONN
*I *924:C I *D sky130_fd_sc_hd__and3b_1
*I *923:X O *D sky130_fd_sc_hd__a31o_1
*CAP
1 *924:C 0.00101895
2 *923:X 0.000617666
3 *110:12 0.00163662
4 *924:C *930:A 0.000224583
5 *924:C *962:A 0.000262223
6 *924:C *962:B 5.37657e-05
7 *924:C *111:8 8.60872e-05
8 *924:C *137:33 1.64621e-05
9 *924:C *139:14 0.000632952
10 *924:C *165:33 0.000394036
11 *924:C *191:22 0.000124521
12 *110:12 *155:78 7.16696e-05
13 *110:12 *194:16 0.000579039
14 *110:12 *198:62 0.00022367
15 *110:12 *207:45 0.000927102
16 *894:B *110:12 4.66203e-05
17 *1080:RESET_B *110:12 0.000172223
18 *80:14 *110:12 2.06178e-05
*RES
1 *923:X *110:12 36.3893 
2 *110:12 *924:C 29.55 
*END

*D_NET *111 0.00876744
*CONN
*I *925:A I *D sky130_fd_sc_hd__buf_1
*I *924:X O *D sky130_fd_sc_hd__and3b_1
*CAP
1 *925:A 0.000656804
2 *924:X 0.00193365
3 *111:8 0.00259045
4 *925:A *934:A 0.000316464
5 *925:A *983:C 1.00399e-05
6 *925:A *1042:A 0
7 *925:A *123:12 0
8 *925:A *154:18 1.24368e-05
9 *925:A *173:90 0.000714764
10 *925:A *210:34 0.000148242
11 *925:A *217:14 0.000669604
12 *111:8 *165:33 0.00157309
13 *924:C *111:8 8.60872e-05
14 *41:8 *925:A 5.58005e-05
*RES
1 *924:X *111:8 37.7464 
2 *111:8 *925:A 31.8179 
*END

*D_NET *112 0.038378
*CONN
*I *1009:B1 I *D sky130_fd_sc_hd__o211a_1
*I *963:A I *D sky130_fd_sc_hd__and3_1
*I *1000:C1 I *D sky130_fd_sc_hd__o211a_1
*I *981:C1 I *D sky130_fd_sc_hd__o221a_1
*I *936:A I *D sky130_fd_sc_hd__and3_1
*I *929:A I *D sky130_fd_sc_hd__and3_1
*I *951:A I *D sky130_fd_sc_hd__and3_1
*I *967:A I *D sky130_fd_sc_hd__and3_1
*I *956:A I *D sky130_fd_sc_hd__and3_1
*I *947:A I *D sky130_fd_sc_hd__and3_1
*I *926:X O *D sky130_fd_sc_hd__buf_2
*CAP
1 *1009:B1 1.32497e-05
2 *963:A 0.000307124
3 *1000:C1 0.000181556
4 *981:C1 0.000712542
5 *936:A 0
6 *929:A 0.000423342
7 *951:A 0
8 *967:A 0.000603007
9 *956:A 2.04426e-05
10 *947:A 0
11 *926:X 0.000298372
12 *112:141 0.00101657
13 *112:137 0.00126723
14 *112:117 0.00150122
15 *112:96 0.00170468
16 *112:75 0.00112938
17 *112:52 0.00149742
18 *112:39 0.000497374
19 *112:30 0.00189329
20 *112:18 0.00274893
21 *112:14 0.00166085
22 *929:A *158:14 0.000606449
23 *929:A *208:28 5.2319e-05
24 *956:A *134:18 5.33005e-05
25 *956:A *144:18 2.59355e-05
26 *963:A *139:14 3.47641e-06
27 *963:A *160:18 0.000143872
28 *963:A *164:37 9.65217e-05
29 *963:A *202:30 9.60939e-05
30 *967:A *972:A2 0.000580118
31 *967:A *142:18 9.49297e-05
32 *967:A *143:8 2.40107e-05
33 *967:A *146:28 0.000261806
34 *967:A *191:90 0.000467759
35 *981:C1 *910:A 0.000180104
36 *981:C1 *910:C 0.000170865
37 *981:C1 *966:A 0
38 *981:C1 *981:B2 1.40893e-05
39 *981:C1 *983:B 0
40 *981:C1 *1030:A 0.000167007
41 *981:C1 *152:28 4.6025e-06
42 *1000:C1 *1000:A1 0.000151141
43 *1000:C1 *1000:B1 5.04841e-06
44 *1000:C1 *119:41 6.80342e-06
45 *1000:C1 *160:18 0.000135165
46 *1000:C1 *164:37 1.01075e-05
47 *1000:C1 *166:29 2.60984e-05
48 *1000:C1 *166:59 5.41609e-05
49 *1000:C1 *175:153 0.000249069
50 *1009:B1 *1009:A2 3.47793e-05
51 *1009:B1 *1009:C1 5.7661e-06
52 *112:18 *980:C 0.000246277
53 *112:18 *1035:A 0.000231154
54 *112:18 *152:28 1.90936e-05
55 *112:18 *166:59 0.000215056
56 *112:18 *168:26 0.000228688
57 *112:18 *204:43 8.34352e-05
58 *112:18 *214:41 0.000300395
59 *112:30 *947:B 1.80916e-05
60 *112:30 *127:12 0.00145252
61 *112:30 *128:12 0.000370733
62 *112:30 *183:141 0.000735146
63 *112:39 *1035:A 0.000296556
64 *112:39 *162:28 0.000203073
65 *112:52 *134:18 6.04072e-05
66 *112:52 *144:18 6.26276e-05
67 *112:52 *159:22 0.000115151
68 *112:52 *196:18 0.000373868
69 *112:75 *951:C 0.000101271
70 *112:75 *994:A2 2.27655e-05
71 *112:75 *124:12 0.000286798
72 *112:75 *131:22 0.000111922
73 *112:75 *159:22 0.000156248
74 *112:75 *196:10 0.000493158
75 *112:75 *196:18 0.000203979
76 *112:75 *214:98 7.69776e-06
77 *112:96 *951:C 0.000569748
78 *112:96 *972:A2 8.75461e-05
79 *112:96 *972:B1 8.49755e-06
80 *112:96 *993:C 6.90187e-05
81 *112:96 *146:138 5.05056e-05
82 *112:96 *197:41 4.926e-05
83 *112:117 *936:C 1.95435e-05
84 *112:117 *951:C 0.000595319
85 *112:117 *120:14 0.000846099
86 *112:117 *182:32 0.000512913
87 *112:117 *182:36 3.67652e-05
88 *112:137 *1009:C1 4.82947e-05
89 *112:137 *141:18 6.09764e-05
90 *112:137 *164:37 0.00011308
91 *112:141 *900:A 4.01264e-05
92 *112:141 *1009:A2 0.000110059
93 *112:141 *1009:C1 1.10868e-05
94 *112:141 *141:18 0.00035213
95 *918:A *112:14 0.000163727
96 *918:A *112:137 9.60939e-05
97 *922:A *112:14 5.33005e-05
98 *926:A *112:14 0.000100879
99 *1064:D *112:30 0.0001365
100 *1064:RESET_B *112:30 0
101 *1071:RESET_B *981:C1 3.26383e-05
102 *1084:RESET_B *929:A 4.19234e-05
103 *20:8 *112:137 4.13496e-05
104 *23:24 *929:A 0.000533115
105 *30:10 *929:A 9.18777e-05
106 *36:26 *112:96 0.000152624
107 *36:26 *112:117 0.000301742
108 *37:10 *112:30 0.000105282
109 *39:8 *963:A 0.000137561
110 *39:8 *112:141 0.000933318
111 *46:10 *112:18 0.000962393
112 *46:10 *112:39 0.000528457
113 *55:12 *981:C1 0.000221064
114 *59:16 *112:30 4.25213e-05
115 *65:10 *963:A 0.000558728
116 *79:14 *112:30 9.41642e-05
117 *83:28 *112:75 0.000219711
118 *83:28 *112:96 0.000224307
119 *85:16 *112:117 0
120 *93:20 *981:C1 0.000622775
121 *103:24 *112:75 4.84073e-05
122 *103:66 *112:137 0.000127054
123 *103:68 *112:137 0.000122591
124 *103:74 *112:137 0.000354815
125 *106:14 *112:18 5.48232e-05
126 *109:10 *112:14 9.92257e-05
*RES
1 *926:X *112:14 23.8893 
2 *112:14 *112:18 22.5357 
3 *112:18 *112:30 46.5893 
4 *112:30 *947:A 9.3 
5 *112:18 *112:39 11.6071 
6 *112:39 *956:A 9.83571 
7 *112:39 *112:52 10.8393 
8 *112:52 *967:A 26.6571 
9 *112:52 *112:75 28.1071 
10 *112:75 *951:A 9.3 
11 *112:75 *112:96 13.6509 
12 *112:96 *929:A 28.1118 
13 *112:96 *112:117 20.1356 
14 *112:117 *936:A 9.3 
15 *112:117 *981:C1 34.5857 
16 *112:14 *112:137 13.6786 
17 *112:137 *112:141 11.6429 
18 *112:141 *1000:C1 23.4607 
19 *112:141 *963:A 27.0679 
20 *112:137 *1009:B1 9.72857 
*END

*D_NET *113 0.00457393
*CONN
*I *929:B I *D sky130_fd_sc_hd__and3_1
*I *927:Y O *D sky130_fd_sc_hd__nand2_1
*CAP
1 *929:B 0.00126388
2 *927:Y 0.00126388
3 *929:B *927:A 0.00183202
4 *929:B *195:28 0.000101989
5 *92:14 *929:B 0.000112171
*RES
1 *927:Y *929:B 37.2071 
*END

*D_NET *114 0.00934397
*CONN
*I *929:C I *D sky130_fd_sc_hd__and3_1
*I *928:X O *D sky130_fd_sc_hd__or2_1
*CAP
1 *929:C 0.00103772
2 *928:X 0.00149325
3 *114:20 0.00253097
4 *929:C *895:A1 0.000722289
5 *929:C *967:B 0.000204481
6 *929:C *120:14 0.00031628
7 *929:C *146:28 0.000232889
8 *929:C *203:98 0.000168393
9 *929:C *208:28 0.000132466
10 *929:C *208:34 0.000332219
11 *114:20 *1093:A 0.000186765
12 *114:20 *192:61 0.000275745
13 *895:A2 *929:C 0.00011444
14 *990:A *114:20 1.94945e-05
15 *1084:RESET_B *929:C 0.000242303
16 *47:18 *114:20 0.000119501
17 *66:14 *929:C 7.57673e-05
18 *80:14 *114:20 0.000122208
19 *85:16 *929:C 0.00016366
20 *85:42 *929:C 7.40526e-05
21 *93:108 *114:20 0.000779083
22 *103:52 *114:20 0
*RES
1 *928:X *114:20 34.6749 
2 *114:20 *929:C 39.8089 
*END

*D_NET *115 0.00837842
*CONN
*I *930:A I *D sky130_fd_sc_hd__clkbuf_1
*I *929:X O *D sky130_fd_sc_hd__and3_1
*CAP
1 *930:A 0.000920029
2 *929:X 0.00111488
3 *115:14 0.00203491
4 *930:A *966:A 0.000263435
5 *930:A *966:B 0.000323849
6 *930:A *981:B2 3.10052e-05
7 *930:A *117:47 9.8155e-05
8 *930:A *165:33 0.000114577
9 *930:A *176:141 0.000658602
10 *930:A *202:30 0.00027706
11 *115:14 *1030:A 5.33005e-05
12 *115:14 *1038:A 0.000142619
13 *115:14 *151:26 0.000111763
14 *924:C *930:A 0.000224583
15 *1067:RESET_B *930:A 1.46617e-05
16 *1071:RESET_B *930:A 1.24912e-05
17 *1076:RESET_B *115:14 0.00113533
18 *23:24 *115:14 2.34204e-05
19 *49:16 *930:A 0.000278768
20 *55:12 *930:A 0.000430634
21 *61:22 *930:A 8.7443e-05
22 *93:20 *930:A 2.69072e-05
*RES
1 *929:X *115:14 38.7464 
2 *115:14 *930:A 44.6338 
*END

*D_NET *116 0.0241188
*CONN
*I *933:B I *D sky130_fd_sc_hd__nor3_1
*I *931:Y O *D sky130_fd_sc_hd__a21oi_1
*CAP
1 *933:B 0
2 *931:Y 0.010344
3 *116:34 0.010344
4 *116:34 *910:C 0.000113783
5 *116:34 *931:A1 0.000103814
6 *116:34 *931:B1 7.20217e-06
7 *116:34 *933:C 0.000249268
8 *116:34 *934:A 0.000168616
9 *116:34 *942:C 0.000243223
10 *116:34 *983:A 0
11 *116:34 *152:28 0.000268301
12 *116:34 *161:14 0.000138538
13 *116:34 *195:22 0.000113783
14 *116:34 *200:35 0.000104681
15 *116:34 *213:12 0
16 an[2] *116:34 4.70487e-05
17 *931:A2 *116:34 9.35114e-06
18 *1011:A *116:34 0.000334311
19 *1081:RESET_B *116:34 0.000260582
20 *23:24 *116:34 0.000143602
21 *101:18 *116:34 0.000574067
22 *102:14 *116:34 0.000113967
23 *102:45 *116:34 0.000436654
*RES
1 *931:Y *116:34 41.1298 
2 *116:34 *933:B 9.3 
*END

*D_NET *117 0.0303274
*CONN
*I *934:B I *D sky130_fd_sc_hd__or2_1
*I *933:C I *D sky130_fd_sc_hd__nor3_1
*I *935:B I *D sky130_fd_sc_hd__nand2_1
*I *932:X O *D sky130_fd_sc_hd__and3_1
*CAP
1 *934:B 0.00101631
2 *933:C 0.00184641
3 *935:B 0.000572009
4 *932:X 0.000669171
5 *117:47 0.00703398
6 *117:37 0.00537131
7 *117:10 0.00244123
8 *933:C *131:22 0.000235258
9 *933:C *161:14 0
10 *934:B *934:A 4.6025e-06
11 *934:B *977:A 4.60209e-05
12 *934:B *200:35 0.000175557
13 *935:B *935:A 0
14 *935:B *119:6 5.66971e-05
15 *935:B *172:10 0.000711926
16 *117:10 *1008:A1_N 0.000114587
17 *117:10 *1008:A2_N 0.000345257
18 *117:10 *1048:A 0.000136951
19 *117:10 *119:41 2.59355e-05
20 *117:37 *971:A 1.07719e-05
21 *117:37 *123:12 7.83587e-05
22 *117:37 *146:12 3.54949e-06
23 *117:37 *155:78 0.000383237
24 *117:37 *172:10 6.88386e-05
25 *117:37 *173:90 0.000118315
26 *117:37 *199:78 0.000519896
27 *117:37 *217:14 0.000519896
28 *117:47 *951:C 2.0724e-05
29 *117:47 *988:B 8.89061e-05
30 *117:47 *126:97 0.000725611
31 *117:47 *129:26 1.93019e-05
32 *117:47 *131:22 8.714e-05
33 *117:47 *148:35 8.36199e-06
34 *117:47 *184:88 2.41653e-05
35 *117:47 *196:89 3.89539e-05
36 *117:47 *202:24 0.000316629
37 *117:47 *214:98 6.73691e-05
38 *894:B *117:47 0.000500159
39 *927:B *934:B 5.28442e-06
40 *930:A *117:47 9.8155e-05
41 *933:A *933:C 9.58181e-05
42 *1008:B2 *117:10 4.72818e-05
43 *1063:D *117:47 0.000498445
44 *1067:RESET_B *117:47 0.000534589
45 *1068:D *935:B 2.08241e-05
46 *1080:D *935:B 0.000761714
47 *1080:D *117:37 0.000735006
48 *1080:RESET_B *117:10 9.89883e-05
49 *1080:RESET_B *117:37 0.000300069
50 *1084:RESET_B *117:47 8.97484e-05
51 *50:28 *933:C 0.000302449
52 *54:20 *933:C 0.00016303
53 *93:20 *117:47 0
54 *100:10 *933:C 0
55 *101:18 *933:C 9.71378e-06
56 *102:14 *933:C 0.000666538
57 *102:45 *933:C 0.000927661
58 *108:16 *935:B 0.000319422
59 *116:34 *933:C 0.000249268
*RES
1 *932:X *117:10 26.2643 
2 *117:10 *935:B 31.4607 
3 *117:10 *117:37 45 
4 *117:37 *117:47 21.3572 
5 *117:47 *933:C 28.0717 
6 *117:47 *934:B 22.628 
*END

*D_NET *118 0.00922205
*CONN
*I *936:B I *D sky130_fd_sc_hd__and3_1
*I *934:X O *D sky130_fd_sc_hd__or2_1
*CAP
1 *936:B 0.00179524
2 *934:X 0.000939911
3 *118:30 0.00273515
4 *936:B *122:18 8.77762e-05
5 *936:B *142:16 0.000183557
6 *936:B *176:135 6.26552e-05
7 *936:B *187:45 0.000109808
8 *936:B *209:66 0
9 *118:30 *953:B1 7.34049e-05
10 *118:30 *970:A 1.21384e-05
11 *118:30 *126:132 0.000179716
12 *118:30 *132:14 0.000209484
13 *118:30 *154:44 0.00018077
14 *118:30 *162:28 3.15517e-05
15 *118:30 *183:28 0.000205779
16 *118:30 *187:22 3.55471e-05
17 *118:30 *205:30 0
18 *942:B *118:30 0.000224348
19 *1054:D *936:B 0.00178727
20 *1077:D *118:30 3.69047e-06
21 *1084:D *118:30 0
22 *20:175 *936:B 5.09696e-05
23 *83:28 *118:30 0.000269718
24 *85:42 *118:30 4.35597e-05
*RES
1 *934:X *118:30 49.3357 
2 *118:30 *936:B 48.5679 
*END

*D_NET *119 0.0176254
*CONN
*I *936:C I *D sky130_fd_sc_hd__and3_1
*I *939:A2 I *D sky130_fd_sc_hd__a211oi_1
*I *935:Y O *D sky130_fd_sc_hd__nand2_1
*CAP
1 *936:C 0.00104184
2 *939:A2 0.00152416
3 *935:Y 0.000475228
4 *119:41 0.00179267
5 *119:6 0.00275022
6 *936:C *990:C 0.000186658
7 *936:C *1039:A 0.000188554
8 *936:C *139:14 0.000424989
9 *936:C *142:16 0.000770613
10 *936:C *160:18 0.000751284
11 *936:C *176:135 0.00093017
12 *936:C *192:43 0.000500741
13 *936:C *214:62 0.000138491
14 *939:A2 *957:A 0.000108355
15 *939:A2 *979:A 1.90936e-05
16 *939:A2 *151:26 0.000220426
17 *939:A2 *171:26 8.89061e-05
18 *939:A2 *188:63 8.91268e-05
19 *939:A2 *188:71 0.000164764
20 *939:A2 *192:18 0.000139337
21 *939:A2 *221:22 4.60078e-05
22 *119:6 *957:A 7.62323e-05
23 *119:6 *192:18 0.00132761
24 *119:41 *963:B 0.000752493
25 *119:41 *1068:CLK 1.6815e-05
26 *119:41 *160:18 0.000107236
27 *119:41 *175:153 3.01806e-05
28 *119:41 *181:18 4.31104e-05
29 *119:41 *181:20 0.000196926
30 *119:41 *192:43 0.000551974
31 *119:41 *214:62 3.69047e-06
32 *921:A *119:41 0
33 *935:B *119:6 5.66971e-05
34 *1000:C1 *119:41 6.80342e-06
35 *1068:D *939:A2 0.000367522
36 *1069:RESET_B *939:A2 4.27935e-05
37 *23:24 *119:41 2.18021e-05
38 *27:26 *939:A2 0.000913826
39 *36:26 *119:41 2.21972e-05
40 *63:14 *939:A2 0.000671328
41 *65:10 *119:41 0
42 *93:126 *939:A2 1.90936e-05
43 *112:117 *936:C 1.95435e-05
44 *117:10 *119:41 2.59355e-05
*RES
1 *935:Y *119:6 22.5679 
2 *119:6 *939:A2 37.852 
3 *119:6 *119:41 31.2679 
4 *119:41 *936:C 46.3536 
*END

*D_NET *120 0.00606045
*CONN
*I *937:A I *D sky130_fd_sc_hd__clkbuf_1
*I *936:X O *D sky130_fd_sc_hd__and3_1
*CAP
1 *937:A 0
2 *936:X 0.00143948
3 *120:14 0.00143948
4 *120:14 *972:A2 0.000175892
5 *120:14 *183:61 1.98839e-05
6 *120:14 *192:86 9.41642e-05
7 *120:14 *208:28 0.000261767
8 *120:14 *214:98 0.00018013
9 *929:C *120:14 0.00031628
10 *1084:D *120:14 0.000134378
11 *1084:RESET_B *120:14 4.00349e-05
12 *93:40 *120:14 0.000178425
13 *103:24 *120:14 0.000934439
14 *112:117 *120:14 0.000846099
*RES
1 *936:X *120:14 44.2821 
2 *120:14 *937:A 9.3 
*END

*D_NET *121 0.0116617
*CONN
*I *939:A1 I *D sky130_fd_sc_hd__a211oi_1
*I *938:Y O *D sky130_fd_sc_hd__inv_2
*CAP
1 *939:A1 0.00112456
2 *938:Y 0.00102816
3 *121:12 0.00215272
4 *939:A1 *126:47 1.90936e-05
5 *939:A1 *175:16 0.000113594
6 *939:A1 *184:16 0.000171475
7 *939:A1 *184:33 0.00062849
8 *939:A1 *221:22 0.00301126
9 *121:12 *985:A 0.00128416
10 *121:12 *156:14 0
11 *121:12 *221:22 0.000333581
12 *1062:RESET_B *939:A1 0.000141343
13 *1068:D *939:A1 0.000145146
14 *26:16 *939:A1 0
15 *26:16 *121:12 0
16 *32:16 *121:12 0.00150808
17 *94:10 *121:12 0
*RES
1 *938:Y *121:12 46.3618 
2 *121:12 *939:A1 22.3623 
*END

*D_NET *122 0.00776074
*CONN
*I *942:A I *D sky130_fd_sc_hd__and3_1
*I *940:X O *D sky130_fd_sc_hd__or2_1
*CAP
1 *942:A 0.000141995
2 *940:X 0.00144876
3 *122:18 0.00159075
4 *942:A *891:A 0.000523049
5 *942:A *942:C 3.5298e-05
6 *942:A *994:A1 4.04292e-05
7 *942:A *994:B1 3.10885e-05
8 *942:A *154:26 0.000184745
9 *942:A *162:8 0.000265038
10 *942:A *162:28 3.10819e-05
11 *942:A *183:28 3.43988e-06
12 *122:18 *903:A 7.71001e-05
13 *122:18 *942:C 1.90936e-05
14 *122:18 *951:C 0.000109158
15 *122:18 *972:A2 0
16 *122:18 *972:B1 0
17 *122:18 *993:B 9.60337e-06
18 *122:18 *993:C 3.12659e-05
19 *122:18 *994:A2 0
20 *122:18 *1012:B 9.15842e-06
21 *122:18 *183:61 0.000129186
22 *122:18 *196:89 2.92054e-05
23 *122:18 *202:24 0.00032878
24 *122:18 *208:28 5.49657e-05
25 *122:18 *211:10 0.000565348
26 *936:B *122:18 8.77762e-05
27 *1054:RESET_B *122:18 2.99108e-05
28 *1066:D *122:18 0.000152016
29 *20:129 *122:18 0.000978384
30 *20:175 *122:18 0
31 *25:12 *122:18 0.000251238
32 *79:14 *122:18 0.00030267
33 *93:40 *122:18 0.000300204
*RES
1 *940:X *122:18 46.7821 
2 *122:18 *942:A 28.5857 
*END

*D_NET *123 0.0148813
*CONN
*I *942:C I *D sky130_fd_sc_hd__and3_1
*I *941:Y O *D sky130_fd_sc_hd__nand2_1
*CAP
1 *942:C 0.00188425
2 *941:Y 0.0014671
3 *123:12 0.00335135
4 *942:C *934:A 0.00356813
5 *942:C *993:B 4.79414e-05
6 *942:C *154:26 0.000147191
7 *942:C *154:44 9.41642e-05
8 *942:C *162:8 0.000167039
9 *942:C *199:41 0.000558738
10 *123:12 *983:C 4.19624e-06
11 *123:12 *155:78 0.00015387
12 *123:12 *210:34 0
13 *123:12 *217:14 0
14 *894:B *123:12 4.13052e-05
15 *925:A *123:12 0
16 *941:B *123:12 0.00073194
17 *942:A *942:C 3.5298e-05
18 *1063:D *123:12 0.00128779
19 *47:18 *123:12 2.46867e-05
20 *78:30 *942:C 4.65519e-05
21 *86:43 *942:C 0.000387028
22 *101:18 *942:C 0.000542031
23 *102:45 *942:C 0
24 *116:34 *942:C 0.000243223
25 *117:37 *123:12 7.83587e-05
26 *122:18 *942:C 1.90936e-05
*RES
1 *941:Y *123:12 47.6654 
2 *123:12 *942:C 27.0498 
*END

*D_NET *124 0.00611738
*CONN
*I *943:A I *D sky130_fd_sc_hd__clkbuf_1
*I *942:X O *D sky130_fd_sc_hd__and3_1
*CAP
1 *943:A 0
2 *942:X 0.00107739
3 *124:12 0.00107739
4 *124:12 *898:A2 7.58841e-05
5 *124:12 *994:A2 2.3027e-05
6 *124:12 *132:14 7.41931e-05
7 *124:12 *154:44 0.000104842
8 *124:12 *155:39 0.000842183
9 *124:12 *155:78 0.00037471
10 *124:12 *162:28 0.00026347
11 *124:12 *183:28 0.000729248
12 *124:12 *191:69 0.000180495
13 *124:12 *194:29 0.000524592
14 *124:12 *196:10 0.00015902
15 *124:12 *196:18 0.000184972
16 *124:12 *201:34 4.1664e-05
17 *124:12 *214:98 2.09826e-05
18 *46:10 *124:12 5.59013e-05
19 *87:44 *124:12 2.06178e-05
20 *112:75 *124:12 0.000286798
*RES
1 *942:X *124:12 49.2821 
2 *124:12 *943:A 9.3 
*END

*D_NET *125 0.00327149
*CONN
*I *947:B I *D sky130_fd_sc_hd__and3_1
*I *944:X O *D sky130_fd_sc_hd__a31o_1
*CAP
1 *947:B 0.000915362
2 *944:X 0.000915362
3 *947:B *985:A 0
4 *947:B *128:12 0.000267731
5 *947:B *155:18 0
6 *947:B *161:14 0.00113913
7 *93:68 *947:B 1.58163e-05
8 *112:30 *947:B 1.80916e-05
*RES
1 *944:X *947:B 46.2429 
*END

*D_NET *126 0.0391663
*CONN
*I *949:B I *D sky130_fd_sc_hd__or2_1
*I *953:A2 I *D sky130_fd_sc_hd__a21o_1
*I *970:D I *D sky130_fd_sc_hd__and4_1
*I *946:A I *D sky130_fd_sc_hd__inv_2
*I *950:B I *D sky130_fd_sc_hd__nand2_1
*I *954:C I *D sky130_fd_sc_hd__and3_2
*I *945:X O *D sky130_fd_sc_hd__and4_2
*CAP
1 *949:B 0.000212264
2 *953:A2 2.38634e-05
3 *970:D 0.000104981
4 *946:A 0.000329547
5 *950:B 0.00123389
6 *954:C 0.000148737
7 *945:X 0.000726418
8 *126:132 0.0013504
9 *126:97 0.00334776
10 *126:72 0.00316347
11 *126:51 0.00257366
12 *126:47 0.00215962
13 *126:16 0.00356482
14 *126:10 0.00261724
15 *946:A *203:24 1.7275e-05
16 *946:A *205:30 3.49846e-05
17 *949:B *979:A 5.65955e-05
18 *949:B *173:60 9.22222e-06
19 *949:B *193:16 1.90936e-05
20 *950:B *903:C 0.000180079
21 *950:B *950:A 0.00118489
22 *950:B *1009:A1 2.08536e-05
23 *950:B *192:43 0.000175892
24 *950:B *204:43 0.000297358
25 *950:B *219:16 0.000256565
26 *953:A2 *891:A 5.20751e-05
27 *953:A2 *188:102 5.25759e-05
28 *954:C *954:A 0
29 *954:C *982:B1 0.000185547
30 *126:16 *982:A1 7.32955e-05
31 *126:16 *982:A4 5.33334e-05
32 *126:16 *986:B 0.000709474
33 *126:16 *133:14 9.25014e-06
34 *126:16 *221:22 0.000161065
35 *126:47 *954:A 0
36 *126:47 *954:B 0.000101601
37 *126:47 *982:A1 4.37451e-05
38 *126:47 *982:B1 0.000110018
39 *126:47 *173:12 0
40 *126:47 *173:18 0.000175141
41 *126:47 *173:60 6.07474e-05
42 *126:47 *175:16 1.94879e-05
43 *126:47 *188:63 0.00121237
44 *126:47 *195:89 0
45 *126:47 *221:22 0.000254882
46 *126:51 *151:26 0.000644408
47 *126:72 *151:26 0.00124209
48 *126:97 *151:26 0.00157784
49 *126:97 *189:61 0
50 *126:97 *202:24 0.000153261
51 *126:97 *203:98 0.000644268
52 *126:132 *892:C 0.000613195
53 *126:132 *893:A 0.000619997
54 *126:132 *970:A 0.00024516
55 *126:132 *145:10 5.49489e-05
56 *126:132 *154:18 0.00020666
57 *126:132 *183:24 0.000222244
58 *126:132 *185:27 1.3807e-05
59 *126:132 *189:33 0
60 *126:132 *199:41 5.52302e-05
61 *126:132 *199:60 0.000249164
62 *126:132 *203:98 5.13496e-05
63 *126:132 *208:34 0.000121411
64 *893:B *126:132 9.14771e-06
65 *904:B *126:47 8.6281e-05
66 *939:A1 *126:47 1.90936e-05
67 *942:B *126:132 1.66524e-05
68 *970:C *970:D 0.000100383
69 *1068:D *949:B 0.000150637
70 *1068:D *126:47 0.000180306
71 *1069:RESET_B *949:B 5.49544e-05
72 *1074:RESET_B *949:B 7.27952e-05
73 *1074:RESET_B *126:47 8.49064e-05
74 *1079:RESET_B *126:47 0.000342111
75 *20:104 *946:A 3.4846e-06
76 *26:16 *126:10 0
77 *45:14 *126:47 0.000145512
78 *74:14 *950:B 0.000337942
79 *78:30 *126:51 0.000198771
80 *78:30 *126:72 0.000416831
81 *78:30 *126:97 0.000810798
82 *78:30 *126:132 0.000123126
83 *85:42 *126:132 0.0010213
84 *86:6 *126:132 5.49489e-05
85 *86:43 *126:132 0.000165821
86 *91:27 *946:A 4.43585e-05
87 *93:126 *950:B 1.88175e-05
88 *103:24 *126:132 2.83284e-06
89 *103:52 *946:A 0
90 *117:47 *126:97 0.000725611
91 *118:30 *126:132 0.000179716
*RES
1 *945:X *126:10 31.4786 
2 *126:10 *126:16 28.2054 
3 *126:16 *954:C 16.4518 
4 *126:16 *126:47 38.7676 
5 *126:47 *126:51 4.84193 
6 *126:51 *950:B 40.4129 
7 *126:51 *126:72 2.81687 
8 *126:72 *946:A 21.6437 
9 *126:72 *126:97 20.289 
10 *126:97 *970:D 15.1571 
11 *126:97 *126:132 49.0179 
12 *126:132 *953:A2 14.7464 
13 *126:47 *949:B 19.536 
*END

*D_NET *127 0.010744
*CONN
*I *947:C I *D sky130_fd_sc_hd__and3_1
*I *946:Y O *D sky130_fd_sc_hd__inv_2
*CAP
1 *947:C 0
2 *946:Y 5.51907e-05
3 *127:12 0.00334129
4 *127:10 0.00339648
5 *127:10 *203:24 7.70035e-05
6 *127:12 *183:77 0.000211358
7 *1056:D *127:12 0.00169036
8 *20:104 *127:12 0.000519791
9 *112:30 *127:12 0.00145252
*RES
1 *946:Y *127:10 19.3357 
2 *127:10 *127:12 43.1339 
3 *127:12 *947:C 9.3 
*END

*D_NET *128 0.00636468
*CONN
*I *948:A I *D sky130_fd_sc_hd__buf_1
*I *947:X O *D sky130_fd_sc_hd__and3_1
*CAP
1 *948:A 0.00037058
2 *947:X 0.00117579
3 *128:12 0.00154637
4 *948:A *916:B 9.90431e-05
5 *948:A *143:8 0.000204497
6 *948:A *191:90 0.000310671
7 *128:12 *146:72 0.00111815
8 *128:12 *175:63 8.89218e-05
9 *128:12 *175:80 0.000258974
10 *128:12 *177:22 1.97827e-05
11 *128:12 *183:141 0.000237093
12 *947:B *128:12 0.000267731
13 *51:20 *948:A 7.8195e-05
14 *93:50 *128:12 8.6229e-06
15 *99:18 *948:A 0.000209536
16 *112:30 *128:12 0.000370733
*RES
1 *947:X *128:12 45.2286 
2 *128:12 *948:A 18.4607 
*END

*D_NET *129 0.0128583
*CONN
*I *951:B I *D sky130_fd_sc_hd__and3_1
*I *949:X O *D sky130_fd_sc_hd__or2_1
*CAP
1 *951:B 0
2 *949:X 0.00329324
3 *129:26 0.00329324
4 *129:26 *993:C 0.000146543
5 *129:26 *994:A2 0.000267398
6 *129:26 *152:28 0.000895661
7 *129:26 *160:18 0.000348995
8 *129:26 *171:26 0.000167751
9 *129:26 *173:60 0.000140587
10 *129:26 *193:16 2.11068e-05
11 *129:26 *199:18 0.00289623
12 *129:26 *202:24 3.43988e-06
13 *1016:A *129:26 0.00110249
14 *1054:RESET_B *129:26 6.07251e-05
15 *1069:RESET_B *129:26 0.000191423
16 *36:26 *129:26 1.0213e-05
17 *117:47 *129:26 1.93019e-05
*RES
1 *949:X *129:26 47.7335 
2 *129:26 *951:B 9.3 
*END

*D_NET *130 0.015229
*CONN
*I *951:C I *D sky130_fd_sc_hd__and3_1
*I *950:Y O *D sky130_fd_sc_hd__nand2_1
*CAP
1 *951:C 0.00210096
2 *950:Y 0.000949475
3 *130:12 0.00305044
4 *951:C *899:A1 8.6229e-06
5 *951:C *972:A2 7.52569e-05
6 *951:C *993:C 0.000107888
7 *951:C *145:10 0.00112928
8 *951:C *198:43 0.00115162
9 *951:C *202:24 0.00250898
10 *130:12 *899:A1 1.41225e-05
11 *130:12 *919:B 0.00092599
12 *130:12 *177:61 0
13 *130:12 *177:80 0
14 *130:12 *198:43 0.000330514
15 *130:12 *198:45 0.000364538
16 *130:12 *202:30 0
17 *130:12 *219:16 0.000137427
18 *36:26 *951:C 0.000191324
19 *42:12 *951:C 1.82896e-05
20 *42:12 *130:12 0.000242302
21 *70:16 *130:12 0.000303297
22 *95:63 *130:12 9.91086e-05
23 *102:45 *951:C 0.000123303
24 *112:75 *951:C 0.000101271
25 *112:96 *951:C 0.000569748
26 *112:117 *951:C 0.000595319
27 *117:47 *951:C 2.0724e-05
28 *122:18 *951:C 0.000109158
*RES
1 *950:Y *130:12 37.9964 
2 *130:12 *951:C 44.1721 
*END

*D_NET *131 0.0154678
*CONN
*I *952:A I *D sky130_fd_sc_hd__buf_1
*I *951:X O *D sky130_fd_sc_hd__and3_1
*CAP
1 *952:A 0.000782436
2 *951:X 0.00376925
3 *131:22 0.00455168
4 *952:A *995:B 0.000317503
5 *952:A *997:C 3.36719e-05
6 *952:A *190:52 0.000115958
7 *131:22 *994:A2 0.000111922
8 *131:22 *1005:A 0.000388154
9 *131:22 *140:28 0.000134038
10 *933:C *131:22 0.000235258
11 *997:A *952:A 0.000120348
12 *1062:RESET_B *952:A 0.000328297
13 *1067:RESET_B *131:22 0
14 *1075:RESET_B *131:22 0
15 *1078:RESET_B *952:A 0.000381153
16 *1086:A *131:22 0.000809917
17 *22:14 *952:A 0
18 *35:10 *952:A 0.0013809
19 *36:26 *131:22 0.000109549
20 *38:26 *131:22 0.000219828
21 *50:28 *131:22 0.000644062
22 *76:14 *131:22 0
23 *102:45 *131:22 1.83179e-05
24 *105:16 *131:22 0.000816464
25 *112:75 *131:22 0.000111922
26 *117:47 *131:22 8.714e-05
*RES
1 *951:X *131:22 37.9363 
2 *131:22 *952:A 37.7196 
*END

*D_NET *132 0.0047728
*CONN
*I *956:B I *D sky130_fd_sc_hd__and3_1
*I *953:X O *D sky130_fd_sc_hd__a21o_1
*CAP
1 *956:B 0
2 *953:X 0.00101928
3 *132:14 0.00101928
4 *132:14 *898:A2 3.75959e-05
5 *132:14 *162:8 4.96113e-05
6 *132:14 *162:28 0.000152628
7 *132:14 *183:28 0.000248683
8 *132:14 *201:34 0.000581888
9 *898:B1 *132:14 0.000120755
10 *1056:RESET_B *132:14 4.98582e-05
11 *45:14 *132:14 0.00031213
12 *84:29 *132:14 0.000175892
13 *87:44 *132:14 0.000721512
14 *118:30 *132:14 0.000209484
15 *124:12 *132:14 7.41931e-05
*RES
1 *953:X *132:14 42.9964 
2 *132:14 *956:B 9.3 
*END

*D_NET *133 0.0233761
*CONN
*I *955:A I *D sky130_fd_sc_hd__inv_2
*I *958:B I *D sky130_fd_sc_hd__nor2_1
*I *959:B I *D sky130_fd_sc_hd__and2_1
*I *965:A3 I *D sky130_fd_sc_hd__a31o_1
*I *954:X O *D sky130_fd_sc_hd__and3_2
*CAP
1 *955:A 0
2 *958:B 0.000105107
3 *959:B 0.000986075
4 *965:A3 0
5 *954:X 0.000380937
6 *133:79 0.000973737
7 *133:60 0.00218025
8 *133:34 0.00118116
9 *133:30 0.00248198
10 *133:14 0.00376924
11 *958:B *136:12 8.55871e-05
12 *959:B *903:C 0
13 *959:B *906:C 4.46325e-05
14 *959:B *959:A 0.000196156
15 *959:B *965:A2 0.000231761
16 *959:B *1015:A1 0
17 *959:B *137:8 6.13757e-06
18 *959:B *141:18 2.03917e-05
19 *959:B *189:63 1.07319e-05
20 *959:B *189:71 0.000110022
21 *959:B *190:20 0.000175892
22 *133:14 *986:B 5.68713e-05
23 *133:14 *1074:CLK 9.0789e-05
24 *133:14 *179:35 6.69257e-05
25 *133:30 *1015:A2 7.3743e-05
26 *133:30 *1050:A 2.85378e-05
27 *133:30 *173:60 2.52428e-05
28 *133:30 *175:16 8.09163e-05
29 *133:30 *175:153 4.60235e-05
30 *133:30 *215:32 6.0964e-05
31 *133:30 *215:40 0.00186637
32 *133:34 *965:A2 9.54798e-06
33 *133:34 *141:18 1.578e-05
34 *133:34 *189:71 8.59283e-05
35 *133:60 *1073:CLK 0.000266057
36 *133:60 *136:12 2.59355e-05
37 *133:60 *176:14 0.000165932
38 *133:60 *179:35 9.21418e-06
39 *133:60 *188:24 0.000860866
40 *133:60 *204:22 0.000374213
41 *133:79 *944:A1 0.000548302
42 *133:79 *1055:CLK 0.000480103
43 *133:79 *136:12 0.000625832
44 *133:79 *176:71 0.00132408
45 *133:79 *198:33 0.000252376
46 *133:79 *212:25 0.000890117
47 *906:D *959:B 1.38032e-05
48 *1016:A *133:30 0.000135028
49 *1073:D *133:60 0.000473331
50 *1074:D *133:14 0.000301266
51 *1074:D *133:60 0.00017096
52 *1075:RESET_B *133:79 0.000171395
53 *1082:RESET_B *133:30 4.98406e-05
54 *35:10 *133:79 0.000215622
55 *38:26 *133:60 4.07424e-05
56 *87:69 *133:79 2.67751e-05
57 *93:126 *133:30 0.000256703
58 *99:18 *133:79 0.000168939
59 *109:10 *133:30 7.19728e-05
60 *126:16 *133:14 9.25014e-06
*RES
1 *954:X *133:14 21.6036 
2 *133:14 *133:30 46.5179 
3 *133:30 *133:34 8.875 
4 *133:34 *965:A3 13.8 
5 *133:34 *959:B 29.2107 
6 *133:14 *133:60 29.7857 
7 *133:60 *958:B 11.0679 
8 *133:60 *133:79 43.5714 
9 *133:79 *955:A 9.3 
*END

*D_NET *134 0.00583925
*CONN
*I *956:C I *D sky130_fd_sc_hd__and3_1
*I *955:Y O *D sky130_fd_sc_hd__inv_2
*CAP
1 *956:C 0
2 *955:Y 0.0016527
3 *134:18 0.0016527
4 *134:18 *907:D 0.000915107
5 *134:18 *1055:CLK 0.00022093
6 *134:18 *144:18 0.000312536
7 *134:18 *198:33 0.000111719
8 *134:18 *203:60 4.00349e-05
9 *956:A *134:18 5.33005e-05
10 *1064:RESET_B *134:18 0.00081407
11 *84:29 *134:18 5.74499e-06
12 *112:52 *134:18 6.04072e-05
*RES
1 *955:Y *134:18 48.5679 
2 *134:18 *956:C 9.3 
*END

*D_NET *135 0.0119943
*CONN
*I *957:A I *D sky130_fd_sc_hd__buf_1
*I *956:X O *D sky130_fd_sc_hd__and3_1
*CAP
1 *957:A 0.000888417
2 *956:X 0.00189475
3 *135:16 0.00278316
4 *957:A *906:A 0.000212705
5 *957:A *932:B 2.82119e-05
6 *957:A *965:A1 9.21418e-06
7 *957:A *188:71 0.000705348
8 *957:A *189:63 7.30435e-05
9 *957:A *191:43 0.00105583
10 *957:A *192:18 7.49214e-05
11 *957:A *192:43 0.000116412
12 *135:16 *905:B 1.18064e-05
13 *135:16 *1005:A 3.8705e-05
14 *135:16 *167:43 7.75495e-06
15 *135:16 *197:41 0.000836154
16 *917:A *957:A 0.0001845
17 *917:B *957:A 1.94945e-05
18 *939:A2 *957:A 0.000108355
19 *67:16 *135:16 0.000100823
20 *84:29 *135:16 0.000717058
21 *91:27 *135:16 0.000217191
22 *95:21 *135:16 0.000316944
23 *95:32 *135:16 0.000382407
24 *95:63 *135:16 4.05174e-06
25 *105:16 *135:16 0.00113079
26 *119:6 *957:A 7.62323e-05
*RES
1 *956:X *135:16 41.2856 
2 *135:16 *957:A 37.3446 
*END

*D_NET *136 0.0089761
*CONN
*I *960:B I *D sky130_fd_sc_hd__nor3_1
*I *958:Y O *D sky130_fd_sc_hd__nor2_1
*CAP
1 *960:B 0.00143901
2 *958:Y 0.000934239
3 *136:12 0.00237324
4 *960:B *898:A2 3.83239e-06
5 *960:B *1046:A 6.05161e-06
6 *960:B *1061:CLK 0.000226979
7 *960:B *1092:A 2.59355e-05
8 *960:B *149:16 0.000142963
9 *960:B *177:22 8.78853e-05
10 *960:B *180:10 0.000303092
11 *960:B *188:14 0.000312767
12 *960:B *214:98 9.35794e-06
13 *136:12 *146:72 0.000214977
14 *136:12 *176:71 0.000896687
15 *898:B1 *960:B 1.46148e-05
16 *958:B *136:12 8.55871e-05
17 *1003:A *136:12 0.000535229
18 *87:69 *136:12 0.000515635
19 *90:16 *960:B 0.000196249
20 *133:60 *136:12 2.59355e-05
21 *133:79 *136:12 0.000625832
*RES
1 *958:Y *136:12 44.0857 
2 *136:12 *960:B 31.3536 
*END

*D_NET *137 0.0236236
*CONN
*I *966:C I *D sky130_fd_sc_hd__nand3_1
*I *960:C I *D sky130_fd_sc_hd__nor3_1
*I *962:B I *D sky130_fd_sc_hd__nand2_1
*I *961:B I *D sky130_fd_sc_hd__or2_1
*I *959:X O *D sky130_fd_sc_hd__and2_1
*CAP
1 *966:C 0.00094279
2 *960:C 0.000673438
3 *962:B 3.15516e-05
4 *961:B 0
5 *959:X 0.000178997
6 *137:33 0.000761976
7 *137:31 0.00192872
8 *137:20 0.00201752
9 *137:8 0.00312546
10 *960:C *1090:A 0.000474133
11 *960:C *189:61 0
12 *960:C *203:98 0.000166758
13 *960:C *208:28 1.54142e-05
14 *960:C *214:98 0.000796869
15 *962:B *165:33 2.2121e-05
16 *966:C *966:B 5.33005e-05
17 *966:C *167:18 0.00102455
18 *966:C *182:72 0.000113224
19 *966:C *182:81 7.08306e-05
20 *966:C *182:85 0.000226146
21 *966:C *185:27 0.0011995
22 *966:C *189:33 0
23 *137:8 *959:A 2.51343e-06
24 *137:20 *168:26 0.00026195
25 *137:20 *176:44 0.00240135
26 *137:20 *181:20 7.6644e-05
27 *137:20 *191:43 7.83659e-05
28 *137:20 *204:43 8.06676e-05
29 *137:31 *903:C 6.36172e-05
30 *137:31 *962:A 8.27532e-05
31 *137:31 *165:33 0.000178847
32 *137:31 *181:18 0.0001188
33 *137:31 *181:20 0.000258684
34 *137:31 *183:121 0.000549637
35 *137:31 *191:22 0.000123728
36 *137:31 *191:43 0.000754724
37 *137:31 *209:24 0.000740247
38 *137:31 *209:66 0.000430009
39 *137:31 *214:72 0.000724146
40 *137:33 *962:A 0.00017947
41 *137:33 *165:33 0.000219289
42 *895:B1 *966:C 2.15245e-05
43 *924:C *962:B 5.37657e-05
44 *924:C *137:33 1.64621e-05
45 *959:B *137:8 6.13757e-06
46 *970:C *960:C 2.82202e-05
47 *1066:D *960:C 0.000163061
48 *1067:D *960:C 0.00155978
49 *1083:D *966:C 0.000124649
50 *45:14 *137:20 0.00043325
51 *90:16 *960:C 6.03558e-05
52 *93:108 *960:C 7.69776e-06
*RES
1 *959:X *137:8 15.5679 
2 *137:8 *137:20 43.9643 
3 *137:20 *961:B 9.3 
4 *137:8 *137:31 34.0179 
5 *137:31 *137:33 2.17857 
6 *137:33 *962:B 10.2375 
7 *137:33 *960:C 38.9875 
8 *137:31 *966:C 42.7107 
*END

*D_NET *138 0.00897796
*CONN
*I *963:B I *D sky130_fd_sc_hd__and3_1
*I *961:X O *D sky130_fd_sc_hd__or2_1
*CAP
1 *963:B 0.00051924
2 *961:X 0.00169857
3 *138:14 0.00221781
4 *963:B *181:18 5.15925e-05
5 *963:B *181:20 0.000707407
6 *138:14 *961:A 0.000520499
7 *138:14 *166:59 0.000296872
8 *138:14 *173:90 4.22986e-05
9 *138:14 *175:153 0.000439047
10 *138:14 *191:43 0.000249645
11 *138:14 *193:16 9.87935e-06
12 *138:14 *203:24 0.000141734
13 *1057:D *963:B 0.000219289
14 *1078:D *138:14 0.00111159
15 *93:126 *138:14 0
16 *119:41 *963:B 0.000752493
*RES
1 *961:X *138:14 45.7643 
2 *138:14 *963:B 30.6214 
*END

*D_NET *139 0.00555695
*CONN
*I *963:C I *D sky130_fd_sc_hd__and3_1
*I *962:Y O *D sky130_fd_sc_hd__nand2_1
*CAP
1 *963:C 0
2 *962:Y 0.00140191
3 *139:14 0.00140191
4 *139:14 *142:16 7.6644e-05
5 *139:14 *158:26 7.51975e-05
6 *139:14 *160:18 0.000910808
7 *139:14 *177:57 9.75531e-05
8 *139:14 *194:27 0.00014699
9 *139:14 *207:16 2.07517e-05
10 *924:C *139:14 0.000632952
11 *936:C *139:14 0.000424989
12 *963:A *139:14 3.47641e-06
13 *55:12 *139:14 0
14 *65:10 *139:14 0.00036376
*RES
1 *962:Y *139:14 48.8893 
2 *139:14 *963:C 9.3 
*END

*D_NET *140 0.0153448
*CONN
*I *964:A I *D sky130_fd_sc_hd__clkbuf_1
*I *963:X O *D sky130_fd_sc_hd__and3_1
*CAP
1 *964:A 0
2 *963:X 0.00452197
3 *140:28 0.00452197
4 *140:28 *903:C 0.0003011
5 *140:28 *160:18 8.68244e-05
6 *140:28 *167:43 2.84116e-05
7 *140:28 *191:90 4.53841e-05
8 *140:28 *192:43 8.68244e-05
9 *912:A1 *140:28 4.38058e-05
10 *917:B *140:28 3.18454e-05
11 *1067:RESET_B *140:28 0
12 *38:26 *140:28 0.00123719
13 *53:22 *140:28 0.000501352
14 *70:16 *140:28 0.0035186
15 *103:66 *140:28 0.0002855
16 *131:22 *140:28 0.000134038
*RES
1 *963:X *140:28 45.3827 
2 *140:28 *964:A 9.3 
*END

*D_NET *141 0.00837675
*CONN
*I *967:B I *D sky130_fd_sc_hd__and3_1
*I *965:X O *D sky130_fd_sc_hd__a31o_1
*CAP
1 *967:B 0.00113451
2 *965:X 0.000719583
3 *141:18 0.00185409
4 *967:B *143:8 6.05161e-06
5 *967:B *146:28 9.92126e-05
6 *967:B *158:26 2.57711e-05
7 *967:B *193:16 0.000617592
8 *967:B *203:24 0.000636401
9 *967:B *203:48 4.15526e-05
10 *141:18 *1015:A1 0.000252403
11 *141:18 *1050:A 6.87975e-06
12 *929:C *967:B 0.000204481
13 *959:B *141:18 2.03917e-05
14 *1015:B1 *141:18 1.01912e-05
15 *1069:RESET_B *967:B 0.00174577
16 *1084:RESET_B *967:B 8.48275e-05
17 *85:16 *967:B 0.000488156
18 *112:137 *141:18 6.09764e-05
19 *112:141 *141:18 0.00035213
20 *133:34 *141:18 1.578e-05
*RES
1 *965:X *141:18 33.3 
2 *141:18 *967:B 45.3536 
*END

*D_NET *142 0.0114291
*CONN
*I *967:C I *D sky130_fd_sc_hd__and3_1
*I *972:A2 I *D sky130_fd_sc_hd__a211oi_1
*I *966:Y O *D sky130_fd_sc_hd__nand3_1
*CAP
1 *967:C 0
2 *972:A2 0.00130405
3 *966:Y 0.000929854
4 *142:18 0.00227305
5 *142:16 0.00189885
6 *972:A2 *144:18 0.00017571
7 *972:A2 *146:138 2.06737e-05
8 *972:A2 *186:18 0.000334111
9 *972:A2 *196:89 6.09762e-05
10 *972:A2 *197:41 0.000257806
11 *142:16 *966:B 0.00121134
12 *142:16 *176:135 2.90709e-05
13 *142:16 *176:141 1.76569e-05
14 *142:16 *182:85 0.000137983
15 *142:16 *209:66 0
16 *142:18 *146:28 0.000360246
17 *895:B1 *142:16 0.000137983
18 *936:B *142:16 0.000183557
19 *936:C *142:16 0.000770613
20 *951:C *972:A2 7.52569e-05
21 *967:A *972:A2 0.000580118
22 *967:A *142:18 9.49297e-05
23 *1067:RESET_B *142:16 2.54283e-05
24 *1071:D *142:16 0
25 *20:152 *972:A2 0.000186616
26 *55:12 *142:16 0
27 *83:28 *972:A2 2.12005e-05
28 *93:40 *972:A2 1.89507e-06
29 *112:96 *972:A2 8.75461e-05
30 *120:14 *972:A2 0.000175892
31 *122:18 *972:A2 0
32 *139:14 *142:16 7.6644e-05
*RES
1 *966:Y *142:16 41.9964 
2 *142:16 *142:18 11.7411 
3 *142:18 *972:A2 49.4696 
4 *142:18 *967:C 9.3 
*END

*D_NET *143 0.00945547
*CONN
*I *968:A I *D sky130_fd_sc_hd__buf_1
*I *967:X O *D sky130_fd_sc_hd__and3_1
*CAP
1 *968:A 0.000826237
2 *967:X 0.00275181
3 *143:8 0.00357805
4 *968:A *944:A1 0.000315887
5 *143:8 *916:B 5.74499e-06
6 *143:8 *944:A1 5.33005e-05
7 *143:8 *146:28 2.77143e-05
8 *143:8 *146:72 0.00017754
9 *143:8 *191:90 0.0011033
10 *948:A *143:8 0.000204497
11 *967:A *143:8 2.40107e-05
12 *967:B *143:8 6.05161e-06
13 *26:16 *968:A 1.757e-05
14 *35:10 *968:A 0.000317609
15 *93:50 *143:8 4.61501e-05
*RES
1 *967:X *143:8 47.1929 
2 *143:8 *968:A 28.2643 
*END

*D_NET *144 0.00716424
*CONN
*I *972:A1 I *D sky130_fd_sc_hd__a211oi_1
*I *969:Y O *D sky130_fd_sc_hd__inv_2
*CAP
1 *972:A1 0.000192601
2 *969:Y 0.00103501
3 *144:18 0.00122761
4 *972:A1 *972:B1 1.90936e-05
5 *972:A1 *146:138 0.000128164
6 *972:A1 *186:18 0.000140865
7 *144:18 *146:138 0.000306884
8 *144:18 *176:118 0.000339346
9 *144:18 *183:61 5.07531e-05
10 *144:18 *184:88 0.000767262
11 *144:18 *198:33 2.79421e-05
12 *144:18 *208:28 0.000734002
13 *956:A *144:18 2.59355e-05
14 *972:A2 *144:18 0.00017571
15 *1054:RESET_B *144:18 4.78556e-05
16 *20:152 *972:A1 1.24368e-05
17 *20:175 *972:A1 3.88665e-05
18 *84:29 *144:18 0.00151874
19 *93:40 *144:18 0
20 *112:52 *144:18 6.26276e-05
21 *134:18 *144:18 0.000312536
*RES
1 *969:Y *144:18 49.5143 
2 *144:18 *972:A1 21.6036 
*END

*D_NET *145 0.00803196
*CONN
*I *971:A I *D sky130_fd_sc_hd__clkbuf_4
*I *970:X O *D sky130_fd_sc_hd__and4_1
*CAP
1 *971:A 0.000282039
2 *970:X 0.00125651
3 *145:10 0.00153855
4 *971:A *146:12 0.00046935
5 *971:A *194:16 5.38242e-05
6 *145:10 *902:C 6.02792e-05
7 *145:10 *983:B 4.12426e-05
8 *145:10 *1060:CLK 0
9 *145:10 *154:18 0.00114693
10 *145:10 *198:43 4.22135e-06
11 *145:10 *202:30 2.21541e-05
12 *899:B1 *971:A 0.00035013
13 *951:C *145:10 0.00112928
14 *42:12 *145:10 0.000485436
15 *93:20 *145:10 0.00112628
16 *117:37 *971:A 1.07719e-05
17 *126:132 *145:10 5.49489e-05
*RES
1 *970:X *145:10 46.9964 
2 *145:10 *971:A 20.4964 
*END

*D_NET *146 0.0359004
*CONN
*I *999:A I *D sky130_fd_sc_hd__nand2_2
*I *972:B1 I *D sky130_fd_sc_hd__a211oi_1
*I *993:C I *D sky130_fd_sc_hd__and4_1
*I *973:B I *D sky130_fd_sc_hd__or2_1
*I *980:C I *D sky130_fd_sc_hd__and3_1
*I *974:B I *D sky130_fd_sc_hd__nand2_2
*I *982:A4 I *D sky130_fd_sc_hd__a41o_1
*I *984:A I *D sky130_fd_sc_hd__and2_2
*I *1004:A2 I *D sky130_fd_sc_hd__a31o_1
*I *971:X O *D sky130_fd_sc_hd__clkbuf_4
*CAP
1 *999:A 0
2 *972:B1 8.40623e-05
3 *993:C 0.000507966
4 *973:B 0
5 *980:C 0.000639362
6 *974:B 0.000975797
7 *982:A4 0.000451956
8 *984:A 0.000117048
9 *1004:A2 0
10 *971:X 0.000544346
11 *146:138 0.000908654
12 *146:80 0.00158408
13 *146:78 0.00101532
14 *146:72 0.000965208
15 *146:51 0.00105721
16 *146:38 0.00109846
17 *146:28 0.00300592
18 *146:12 0.00232977
19 *972:B1 *186:18 2.15258e-05
20 *972:B1 *186:40 2.73754e-05
21 *974:B *974:A 0.00010171
22 *974:B *982:A3 0.000229595
23 *974:B *986:B 2.02231e-05
24 *974:B *148:10 4.85049e-06
25 *974:B *215:32 3.53804e-05
26 *980:C *1034:A 9.46929e-05
27 *980:C *162:54 0.000983039
28 *980:C *168:26 0.000248706
29 *980:C *176:16 0.000165917
30 *980:C *176:44 8.28727e-05
31 *980:C *177:16 8.48366e-05
32 *980:C *219:16 8.55871e-05
33 *982:A4 *982:A3 0.000421594
34 *982:A4 *991:A 4.75911e-05
35 *982:A4 *1028:A 0.000230312
36 *982:A4 *175:50 0.000451087
37 *984:A *908:A_N 0.000472721
38 *984:A *196:62 0.000472721
39 *993:C *993:B 2.22043e-05
40 *993:C *994:A2 0.000109446
41 *993:C *154:26 9.25014e-06
42 *993:C *202:24 2.54616e-05
43 *146:12 *165:33 5.80706e-06
44 *146:12 *187:47 0.00033921
45 *146:12 *198:43 0.000116092
46 *146:38 *1004:A3 0.000460372
47 *146:38 *1004:B1 1.98839e-05
48 *146:38 *165:33 0.00142105
49 *146:38 *196:62 0.00164871
50 *146:51 *908:A_N 9.41642e-05
51 *146:51 *1004:A3 0
52 *146:51 *1004:B1 3.87898e-05
53 *146:51 *196:62 0.000142211
54 *146:72 *177:22 0.0016737
55 *146:72 *183:141 0.000168403
56 *146:78 *170:16 0.000139913
57 *146:78 *175:50 0.000370124
58 *146:78 *177:22 4.84319e-05
59 *146:78 *194:49 0.000137983
60 *146:80 *175:50 0.000268054
61 *146:138 *184:88 0.000150394
62 *146:138 *186:18 0.000380519
63 *929:C *146:28 0.000232889
64 *951:C *993:C 0.000107888
65 *967:A *146:28 0.000261806
66 *967:B *146:28 9.92126e-05
67 *971:A *146:12 0.00046935
68 *972:A1 *972:B1 1.90936e-05
69 *972:A1 *146:138 0.000128164
70 *972:A2 *146:138 2.06737e-05
71 *1054:RESET_B *993:C 0.000260076
72 *1062:D *980:C 8.48366e-05
73 *1078:D *974:B 6.45178e-05
74 *1084:RESET_B *146:28 0.000234407
75 *20:175 *972:B1 2.56258e-05
76 *27:26 *972:B1 9.54798e-06
77 *36:26 *993:C 0.000446113
78 *53:22 *982:A4 1.28166e-05
79 *53:22 *146:72 0.000210266
80 *53:22 *146:78 3.78211e-05
81 *53:22 *146:80 8.06788e-05
82 *87:69 *146:72 0.000213269
83 *93:40 *146:28 0.000542803
84 *93:40 *146:38 0.000218685
85 *93:50 *146:72 8.55871e-05
86 *94:10 *980:C 0.00186207
87 *112:18 *980:C 0.000246277
88 *112:96 *972:B1 8.49755e-06
89 *112:96 *993:C 6.90187e-05
90 *112:96 *146:138 5.05056e-05
91 *117:37 *146:12 3.54949e-06
92 *122:18 *972:B1 0
93 *122:18 *993:C 3.12659e-05
94 *126:16 *982:A4 5.33334e-05
95 *128:12 *146:72 0.00111815
96 *129:26 *993:C 0.000146543
97 *136:12 *146:72 0.000214977
98 *142:18 *146:28 0.000360246
99 *143:8 *146:28 2.77143e-05
100 *143:8 *146:72 0.00017754
101 *144:18 *146:138 0.000306884
*RES
1 *971:X *146:12 27.7286 
2 *146:12 *146:28 38.8571 
3 *146:28 *146:38 23.4107 
4 *146:38 *1004:A2 9.3 
5 *146:38 *146:51 4.28571 
6 *146:51 *984:A 13.9429 
7 *146:51 *146:72 44.6071 
8 *146:72 *146:78 10.8393 
9 *146:78 *146:80 3.76786 
10 *146:80 *982:A4 25.8536 
11 *146:80 *974:B 35.175 
12 *146:78 *980:C 45.3134 
13 *146:72 *973:B 9.3 
14 *146:28 *146:138 12.6696 
15 *146:138 *993:C 26.5216 
16 *146:138 *972:B1 15.5946 
17 *146:12 *999:A 9.3 
*END

*D_NET *147 0.00212892
*CONN
*I *975:B I *D sky130_fd_sc_hd__and3_1
*I *973:X O *D sky130_fd_sc_hd__or2_1
*CAP
1 *975:B 0.00095136
2 *973:X 0.00095136
3 *975:B *149:16 5.20751e-05
4 *975:B *170:16 6.57442e-05
5 *975:B *194:57 0.000108379
*RES
1 *973:X *975:B 29.4036 
*END

*D_NET *148 0.0216887
*CONN
*I *981:A2 I *D sky130_fd_sc_hd__o221a_1
*I *977:B I *D sky130_fd_sc_hd__xor2_1
*I *975:C I *D sky130_fd_sc_hd__and3_1
*I *974:Y O *D sky130_fd_sc_hd__nand2_2
*CAP
1 *981:A2 0.000105148
2 *977:B 0
3 *975:C 0.000105705
4 *974:Y 0.000580687
5 *148:54 0.00283785
6 *148:41 0.00332099
7 *148:35 0.00211268
8 *148:10 0.00221078
9 *975:C *170:16 2.14757e-05
10 *981:A2 *981:B2 9.54798e-06
11 *981:A2 *151:26 4.6025e-06
12 *981:A2 *152:28 5.58875e-06
13 *148:10 *986:B 7.14469e-05
14 *148:10 *162:54 0
15 *148:10 *164:12 0.000276456
16 *148:10 *184:66 2.04825e-05
17 *148:10 *215:32 0
18 *148:35 *1061:CLK 0.000417268
19 *148:35 *149:16 0.00183644
20 *148:35 *188:24 0
21 *148:41 *1019:A 0.000103266
22 *148:41 *1076:CLK 1.53528e-05
23 *148:41 *180:45 0
24 *148:54 *1019:A 8.32118e-05
25 *148:54 *1076:CLK 4.12907e-05
26 *148:54 *152:28 0.000263706
27 *148:54 *171:26 0
28 *148:54 *201:78 0.00320174
29 *909:A3 *148:10 0.000161729
30 *909:A3 *148:35 0.00115917
31 *912:A1 *148:41 0.000894422
32 *926:A *148:10 0
33 *927:B *148:41 0.000885074
34 *974:B *148:10 4.85049e-06
35 *975:A *975:C 0.000107176
36 *975:A *148:10 0
37 *975:A *148:35 0
38 *1067:RESET_B *148:35 0.000399717
39 *1078:D *148:10 3.22675e-05
40 *29:12 *148:54 0.000279063
41 *50:28 *148:35 5.00194e-05
42 *51:20 *148:41 6.11492e-05
43 *117:47 *148:35 8.36199e-06
*RES
1 *974:Y *148:10 23.4786 
2 *148:10 *975:C 15.2286 
3 *148:10 *148:35 40.3289 
4 *148:35 *148:41 17.6339 
5 *148:41 *977:B 13.8 
6 *148:41 *148:54 45.6607 
7 *148:54 *981:A2 19.9429 
*END

*D_NET *149 0.00699235
*CONN
*I *976:A I *D sky130_fd_sc_hd__clkbuf_1
*I *975:X O *D sky130_fd_sc_hd__and3_1
*CAP
1 *976:A 0.000246666
2 *975:X 0.00152068
3 *149:16 0.00176735
4 *976:A *1088:A 3.19935e-05
5 *976:A *162:28 4.46403e-05
6 *976:A *205:30 5.47064e-05
7 *149:16 *1061:CLK 3.9267e-05
8 *149:16 *162:38 0
9 *149:16 *170:16 0.000187041
10 *149:16 *188:14 3.47641e-06
11 *149:16 *205:30 0.000120604
12 *960:B *149:16 0.000142963
13 *975:B *149:16 5.20751e-05
14 *51:20 *149:16 0
15 *93:40 *976:A 0.000472219
16 *103:24 *976:A 0.000472219
17 *148:35 *149:16 0.00183644
*RES
1 *975:X *149:16 49.6214 
2 *149:16 *976:A 25.4964 
*END

*D_NET *150 0.00264984
*CONN
*I *978:B I *D sky130_fd_sc_hd__nor2_1
*I *977:X O *D sky130_fd_sc_hd__xor2_1
*CAP
1 *978:B 0.000547524
2 *977:X 0.000547524
3 *20:195 *978:B 0.000543484
4 *92:14 *978:B 0.0010113
*RES
1 *977:X *978:B 33.5286 
*END

*D_NET *151 0.0174481
*CONN
*I *981:A1 I *D sky130_fd_sc_hd__o221a_1
*I *979:Y O *D sky130_fd_sc_hd__nand2_1
*CAP
1 *981:A1 0
2 *979:Y 0.00546692
3 *151:26 0.00546692
4 *151:26 *979:A 2.06112e-05
5 *151:26 *981:B2 9.83721e-06
6 *151:26 *988:B 0
7 *151:26 *1038:A 0.00014225
8 *151:26 *1065:CLK 0.000103646
9 *151:26 *152:28 0.00148894
10 *151:26 *171:26 0
11 *151:26 *196:89 0
12 *151:26 *196:108 0.000460628
13 *939:A2 *151:26 0.000220426
14 *981:A2 *151:26 4.6025e-06
15 *1076:RESET_B *151:26 0.000103646
16 *63:14 *151:26 0.000225356
17 *78:30 *151:26 0.000158226
18 *115:14 *151:26 0.000111763
19 *126:51 *151:26 0.000644408
20 *126:72 *151:26 0.00124209
21 *126:97 *151:26 0.00157784
*RES
1 *979:Y *151:26 46.471 
2 *151:26 *981:A1 9.3 
*END

*D_NET *152 0.0183803
*CONN
*I *981:B1 I *D sky130_fd_sc_hd__o221a_1
*I *980:X O *D sky130_fd_sc_hd__and3_1
*CAP
1 *981:B1 0
2 *980:X 0.00581771
3 *152:28 0.00581771
4 *152:28 *901:A1 6.43087e-06
5 *152:28 *981:B2 9.54798e-06
6 *152:28 *983:B 2.24823e-05
7 *152:28 *171:26 0.000583746
8 *152:28 *195:53 0.000835565
9 *152:28 *195:63 0.000540802
10 *152:28 *195:73 9.63211e-05
11 *152:28 *196:108 0.000263358
12 *152:28 *197:81 0.000375519
13 *152:28 *199:18 4.00893e-05
14 *152:28 *201:78 0.00020263
15 *152:28 *213:28 8.94556e-05
16 *981:A2 *152:28 5.58875e-06
17 *981:C1 *152:28 4.6025e-06
18 *1065:RESET_B *152:28 0.000120876
19 *29:12 *152:28 0.000197389
20 *30:10 *152:28 0.000301554
21 *97:8 *152:28 9.41642e-05
22 *106:14 *152:28 1.90936e-05
23 *112:18 *152:28 1.90936e-05
24 *116:34 *152:28 0.000268301
25 *129:26 *152:28 0.000895661
26 *148:54 *152:28 0.000263706
27 *151:26 *152:28 0.00148894
*RES
1 *980:X *152:28 47.3614 
2 *152:28 *981:B1 9.3 
*END

*D_NET *153 0.00455072
*CONN
*I *986:B I *D sky130_fd_sc_hd__and3_1
*I *982:X O *D sky130_fd_sc_hd__a41o_1
*CAP
1 *986:B 0.0009064
2 *982:X 0.0009064
3 *986:B *954:B 0.000141729
4 *986:B *982:A1 0.0012853
5 *986:B *987:A 9.60939e-05
6 *986:B *184:33 7.42893e-05
7 *986:B *184:66 0.000110391
8 *986:B *188:24 6.20076e-05
9 *986:B *215:32 0
10 *922:A *986:B 4.75955e-05
11 *974:B *986:B 2.02231e-05
12 *1016:A *986:B 0
13 *78:30 *986:B 6.25005e-05
14 *126:16 *986:B 0.000709474
15 *133:14 *986:B 5.68713e-05
16 *148:10 *986:B 7.14469e-05
*RES
1 *982:X *986:B 49.9929 
*END

*D_NET *154 0.0160187
*CONN
*I *993:D I *D sky130_fd_sc_hd__and4_1
*I *998:B I *D sky130_fd_sc_hd__and2_1
*I *984:B I *D sky130_fd_sc_hd__and2_2
*I *983:X O *D sky130_fd_sc_hd__and4_1
*CAP
1 *993:D 0
2 *998:B 2.25507e-05
3 *984:B 0.000657167
4 *983:X 0.000976532
5 *154:44 0.00248261
6 *154:26 0.00248255
7 *154:18 0.00165619
8 *984:B *908:B 9.25014e-06
9 *984:B *1025:A 0.000139393
10 *984:B *200:20 0.000483069
11 *154:18 *910:A 2.14757e-05
12 *154:18 *910:C 0.00059044
13 *154:18 *970:A 5.52302e-05
14 *154:18 *983:A 0.000228189
15 *154:18 *983:B 1.38323e-05
16 *154:18 *983:C 3.53079e-05
17 *154:18 *167:18 3.63775e-05
18 *154:18 *194:16 0.000349009
19 *154:18 *203:98 5.33005e-05
20 *154:26 *891:A 0.000191843
21 *154:26 *970:A 0.000693415
22 *154:26 *993:A 9.8475e-05
23 *154:26 *994:A2 5.59013e-05
24 *154:44 *994:A2 0.000253605
25 *154:44 *1025:A 5.51615e-05
26 *154:44 *1064:CLK 0.000210722
27 *154:44 *175:80 0.000121891
28 *912:A2 *154:44 0.000120368
29 *925:A *154:18 1.24368e-05
30 *942:A *154:26 0.000184745
31 *942:C *154:26 0.000147191
32 *942:C *154:44 9.41642e-05
33 *970:C *154:18 0.00017814
34 *993:C *154:26 9.25014e-06
35 *1055:RESET_B *984:B 2.23393e-05
36 *1077:RESET_B *154:44 0.000219309
37 *80:18 *984:B 0
38 *83:28 *154:44 0.00014371
39 *87:44 *154:44 2.06178e-05
40 *98:12 *984:B 0.000394969
41 *98:12 *154:44 0.000557361
42 *101:18 *154:18 0.000301438
43 *118:30 *154:44 0.00018077
44 *124:12 *154:44 0.000104842
45 *126:132 *154:18 0.00020666
46 *145:10 *154:18 0.00114693
*RES
1 *983:X *154:18 43.1393 
2 *154:18 *154:26 23.8214 
3 *154:26 *154:44 45.6607 
4 *154:44 *984:B 34.3893 
5 *154:44 *998:B 9.72857 
6 *154:26 *993:D 9.3 
*END

*D_NET *155 0.0252603
*CONN
*I *989:B I *D sky130_fd_sc_hd__nand2_1
*I *988:B I *D sky130_fd_sc_hd__or2_1
*I *985:A I *D sky130_fd_sc_hd__inv_2
*I *984:X O *D sky130_fd_sc_hd__and2_2
*CAP
1 *989:B 0.000497423
2 *988:B 0.00121022
3 *985:A 0.00107139
4 *984:X 0.000606497
5 *155:78 0.00248982
6 *155:39 0.00522723
7 *155:18 0.0037025
8 *985:A *161:14 0
9 *985:A *166:69 0
10 *988:B *910:C 9.53302e-05
11 *988:B *934:A 0.000138505
12 *988:B *197:41 0.00088335
13 *988:B *199:41 0.000127441
14 *989:B *1080:CLK 2.59355e-05
15 *989:B *199:78 6.51456e-05
16 *155:18 *908:A_N 2.42516e-05
17 *155:18 *908:B 5.1584e-05
18 *155:18 *916:B 0.000136676
19 *155:18 *161:14 0
20 *155:18 *196:62 0.000256729
21 *155:39 *1061:CLK 7.80776e-05
22 *155:39 *194:29 0.000607298
23 *155:39 *211:10 1.98839e-05
24 *155:78 *189:61 9.12375e-05
25 *155:78 *191:69 0.000361617
26 *155:78 *194:29 9.07367e-05
27 *894:B *155:78 0.000365667
28 *947:B *985:A 0
29 *947:B *155:18 0
30 *1067:RESET_B *988:B 3.00664e-05
31 *1080:RESET_B *989:B 7.62836e-05
32 *1080:RESET_B *155:78 0.000101876
33 *27:26 *988:B 0.000298317
34 *32:16 *985:A 0.000154522
35 *32:16 *155:18 7.54868e-05
36 *45:14 *155:39 0.000270939
37 *46:10 *155:39 0.000799389
38 *46:10 *155:78 0.000301438
39 *67:16 *988:B 0.000649013
40 *74:14 *989:B 4.05607e-05
41 *78:30 *988:B 0.000329313
42 *86:43 *988:B 0.00013063
43 *94:10 *985:A 0
44 *100:10 *985:A 0.000394712
45 *100:10 *155:18 0.000184448
46 *110:12 *155:78 7.16696e-05
47 *117:37 *155:78 0.000383237
48 *117:47 *988:B 8.89061e-05
49 *121:12 *985:A 0.00128416
50 *123:12 *155:78 0.00015387
51 *124:12 *155:39 0.000842183
52 *124:12 *155:78 0.00037471
53 *151:26 *988:B 0
*RES
1 *984:X *155:18 31.9786 
2 *155:18 *985:A 39.1214 
3 *155:18 *155:39 41.875 
4 *155:39 *988:B 44.9648 
5 *155:39 *155:78 45.4107 
6 *155:78 *989:B 24.8893 
*END

*D_NET *156 0.00562063
*CONN
*I *986:C I *D sky130_fd_sc_hd__and3_1
*I *985:Y O *D sky130_fd_sc_hd__inv_2
*CAP
1 *986:C 0
2 *985:Y 0.00186324
3 *156:14 0.00186324
4 *156:14 *945:B 0.000109998
5 *156:14 *997:C 0.00156615
6 *156:14 *164:37 8.60819e-05
7 *32:12 *156:14 0.00012909
8 *94:10 *156:14 2.8266e-06
9 *121:12 *156:14 0
*RES
1 *985:Y *156:14 42.8804 
2 *156:14 *986:C 9.3 
*END

*D_NET *157 0.00365748
*CONN
*I *987:A I *D sky130_fd_sc_hd__clkbuf_1
*I *986:X O *D sky130_fd_sc_hd__and3_1
*CAP
1 *987:A 0.00074433
2 *986:X 0.00074433
3 *922:A *987:A 0.000981219
4 *986:B *987:A 9.60939e-05
5 *37:10 *987:A 0.000570419
6 *40:12 *987:A 0.000215531
7 *59:16 *987:A 0.000305558
*RES
1 *986:X *987:A 44.8857 
*END

*D_NET *158 0.0106286
*CONN
*I *990:B I *D sky130_fd_sc_hd__and3_1
*I *988:X O *D sky130_fd_sc_hd__or2_1
*CAP
1 *990:B 0
2 *988:X 0.000559404
3 *158:26 0.00178499
4 *158:14 0.0023444
5 *158:14 *198:37 0.00038704
6 *158:26 *1070:CLK 0
7 *158:26 *159:10 0.000177545
8 *158:26 *159:22 0.00107676
9 *158:26 *193:16 0.00026264
10 *158:26 *203:24 7.58841e-05
11 *158:26 *203:48 6.47188e-05
12 *929:A *158:14 0.000606449
13 *967:B *158:26 2.57711e-05
14 *1084:RESET_B *158:14 2.30116e-06
15 *30:10 *158:14 0.000613811
16 *43:24 *158:26 0.000181346
17 *65:10 *158:26 3.40437e-05
18 *85:16 *158:26 0.00127084
19 *103:24 *158:26 0.000313676
20 *103:38 *158:26 0.000771805
21 *139:14 *158:26 7.51975e-05
*RES
1 *988:X *158:14 34.9429 
2 *158:14 *158:26 48.9643 
3 *158:26 *990:B 9.3 
*END

*D_NET *159 0.016573
*CONN
*I *990:C I *D sky130_fd_sc_hd__and3_1
*I *994:A2 I *D sky130_fd_sc_hd__a211oi_1
*I *989:Y O *D sky130_fd_sc_hd__nand2_1
*CAP
1 *990:C 0.000136366
2 *994:A2 0.00068085
3 *989:Y 0.00111985
4 *159:22 0.00232625
5 *159:10 0.00290161
6 *990:C *1080:CLK 8.36234e-05
7 *990:C *214:62 0.000186134
8 *994:A2 *993:A 0
9 *994:A2 *189:10 0
10 *994:A2 *196:10 5.5764e-05
11 *159:10 *187:79 0.000770109
12 *159:22 *903:A 9.67197e-05
13 *159:22 *1012:A 0.000266938
14 *159:22 *1012:B 9.85599e-06
15 *159:22 *176:118 0.000206472
16 *159:22 *185:43 0.000975557
17 *159:22 *186:18 0.000175892
18 *159:22 *196:18 0.000105553
19 *159:22 *214:98 1.90936e-05
20 *895:A2 *994:A2 8.46829e-05
21 *936:C *990:C 0.000186658
22 *990:A *990:C 0.000164987
23 *993:C *994:A2 0.000109446
24 *1066:D *159:22 0.00111269
25 *1086:A *159:22 4.22135e-06
26 *20:104 *159:10 0.000530837
27 *20:104 *159:22 0.000733165
28 *25:12 *159:22 0.00011344
29 *79:14 *159:22 0.000890232
30 *87:32 *994:A2 9.83388e-05
31 *87:44 *994:A2 0.000167382
32 *112:52 *159:22 0.000115151
33 *112:75 *994:A2 2.27655e-05
34 *112:75 *159:22 0.000156248
35 *122:18 *994:A2 0
36 *124:12 *994:A2 2.3027e-05
37 *129:26 *994:A2 0.000267398
38 *131:22 *994:A2 0.000111922
39 *154:26 *994:A2 5.59013e-05
40 *154:44 *994:A2 0.000253605
41 *158:26 *159:10 0.000177545
42 *158:26 *159:22 0.00107676
*RES
1 *989:Y *159:10 25.5857 
2 *159:10 *159:22 48.9643 
3 *159:22 *994:A2 28.1393 
4 *159:10 *990:C 22.4786 
*END

*D_NET *160 0.0138981
*CONN
*I *991:A I *D sky130_fd_sc_hd__clkbuf_1
*I *990:X O *D sky130_fd_sc_hd__and3_1
*CAP
1 *991:A 1.14553e-05
2 *990:X 0.00337401
3 *160:18 0.00338546
4 *991:A *982:A3 1.02504e-05
5 *160:18 *1017:A2 9.85245e-05
6 *160:18 *164:37 3.41247e-05
7 *160:18 *168:14 0.000647767
8 *160:18 *173:90 0.00102189
9 *160:18 *184:66 0.000906873
10 *160:18 *192:43 0.000220984
11 *160:18 *204:22 0.00112382
12 *936:C *160:18 0.000751284
13 *963:A *160:18 0.000143872
14 *982:A4 *991:A 4.75911e-05
15 *1000:C1 *160:18 0.000135165
16 *1016:A *160:18 0.000104729
17 *1078:RESET_B *160:18 0.000189796
18 *1086:A *160:18 0.000127701
19 *36:26 *160:18 7.35192e-05
20 *38:26 *160:18 1.78124e-05
21 *53:22 *991:A 1.76266e-05
22 *119:41 *160:18 0.000107236
23 *129:26 *160:18 0.000348995
24 *139:14 *160:18 0.000910808
25 *140:28 *160:18 8.68244e-05
*RES
1 *990:X *160:18 49.6702 
2 *160:18 *991:A 14.3804 
*END

*D_NET *161 0.0134116
*CONN
*I *994:A1 I *D sky130_fd_sc_hd__a211oi_1
*I *992:Y O *D sky130_fd_sc_hd__inv_2
*CAP
1 *994:A1 0.000277831
2 *992:Y 0
3 *161:14 0.0032632
4 *161:6 0.00298537
5 *994:A1 *994:B1 0.000259096
6 *994:A1 *183:28 4.77446e-05
7 *161:14 *934:A 0.000573132
8 *161:14 *166:69 9.25014e-06
9 *161:14 *200:20 0.0029515
10 *161:14 *200:35 0.000362849
11 *933:A *161:14 0.000525654
12 *933:C *161:14 0
13 *942:A *994:A1 4.04292e-05
14 *942:B *994:A1 7.29646e-05
15 *947:B *161:14 0.00113913
16 *985:A *161:14 0
17 *1075:RESET_B *161:14 4.70487e-05
18 *80:18 *161:14 0
19 *87:32 *994:A1 2.51452e-05
20 *87:44 *161:14 6.92539e-05
21 *92:14 *994:A1 1.21258e-05
22 *98:12 *161:14 0
23 *100:10 *161:14 0
24 *101:18 *161:14 0.000611301
25 *116:34 *161:14 0.000138538
26 *155:18 *161:14 0
*RES
1 *992:Y *161:6 13.8 
2 *161:6 *161:14 49.6457 
3 *161:14 *994:A1 18.8625 
*END

*D_NET *162 0.0196773
*CONN
*I *994:B1 I *D sky130_fd_sc_hd__a211oi_1
*I *996:B I *D sky130_fd_sc_hd__and2_1
*I *995:B I *D sky130_fd_sc_hd__nor2_1
*I *993:X O *D sky130_fd_sc_hd__and4_1
*CAP
1 *994:B1 0.000255267
2 *996:B 0
3 *995:B 0.000288039
4 *993:X 8.87146e-05
5 *162:54 0.00122408
6 *162:38 0.00181249
7 *162:28 0.00226744
8 *162:8 0.00173497
9 *994:B1 *953:B1 2.12775e-05
10 *994:B1 *970:A 7.21803e-05
11 *994:B1 *183:24 3.05105e-05
12 *995:B *995:A 0.00132318
13 *162:8 *891:A 1.98839e-05
14 *162:28 *938:A 0.000101839
15 *162:28 *970:A 5.54204e-05
16 *162:28 *1035:A 0.000118982
17 *162:28 *1088:A 0.000143744
18 *162:28 *183:28 0
19 *162:28 *187:22 0.000371405
20 *162:28 *191:90 6.09658e-05
21 *162:28 *201:34 0.000558565
22 *162:28 *201:40 0.00017429
23 *162:28 *205:30 0
24 *162:38 *1088:A 9.73661e-05
25 *162:38 *178:33 1.19071e-05
26 *162:38 *195:63 1.26641e-05
27 *162:38 *195:73 1.19191e-05
28 *162:38 *201:56 4.27935e-05
29 *162:38 *205:30 4.18606e-05
30 *162:54 *164:12 0
31 *162:54 *176:16 0.000344232
32 *162:54 *176:44 0.000637161
33 *162:54 *183:141 0
34 *162:54 *201:56 0.000193852
35 *162:54 *222:12 6.23683e-05
36 *898:B1 *162:28 0.00012247
37 *942:A *994:B1 3.10885e-05
38 *942:A *162:8 0.000265038
39 *942:A *162:28 3.10819e-05
40 *942:C *162:8 0.000167039
41 *952:A *995:B 0.000317503
42 *975:A *162:38 0.000141196
43 *975:A *162:54 2.72341e-05
44 *976:A *162:28 4.46403e-05
45 *980:C *162:54 0.000983039
46 *994:A1 *994:B1 0.000259096
47 *997:A *995:B 0.000821816
48 *1056:RESET_B *162:28 9.25014e-06
49 *1056:RESET_B *162:38 4.2313e-06
50 *1061:RESET_B *162:28 0.000175892
51 *1062:D *162:38 5.33005e-05
52 *1062:D *162:54 9.66977e-05
53 *1062:RESET_B *995:B 0.000274126
54 *20:175 *994:B1 0.000107617
55 *36:26 *162:28 9.21418e-06
56 *37:10 *162:54 0
57 *40:12 *162:54 0.00023259
58 *45:14 *162:38 2.26057e-05
59 *46:10 *162:28 6.47912e-05
60 *52:10 *162:38 0.000134552
61 *84:12 *995:B 0.000314907
62 *84:12 *162:54 0.000911504
63 *87:32 *994:B1 2.2355e-05
64 *87:44 *162:28 0.000711859
65 *89:16 *162:38 0.000421035
66 *97:8 *162:54 1.98839e-05
67 *112:39 *162:28 0.000203073
68 *118:30 *162:28 3.15517e-05
69 *124:12 *162:28 0.00026347
70 *132:14 *162:8 4.96113e-05
71 *132:14 *162:28 0.000152628
72 *148:10 *162:54 0
73 *149:16 *162:38 0
*RES
1 *993:X *162:8 16.8 
2 *162:8 *162:28 49.4821 
3 *162:28 *162:38 21.4107 
4 *162:38 *162:54 43.6429 
5 *162:54 *995:B 25.4607 
6 *162:38 *996:B 9.3 
7 *162:8 *994:B1 19.4429 
*END

*D_NET *163 0.00128671
*CONN
*I *997:B I *D sky130_fd_sc_hd__nor3_1
*I *995:Y O *D sky130_fd_sc_hd__nor2_1
*CAP
1 *997:B 0.000585496
2 *995:Y 0.000585496
3 *997:B *221:22 6.2379e-05
4 *997:A *997:B 4.84073e-05
5 *35:8 *997:B 4.93118e-06
*RES
1 *995:Y *997:B 37.5821 
*END

*D_NET *164 0.0147574
*CONN
*I *1000:A2 I *D sky130_fd_sc_hd__o211a_1
*I *997:C I *D sky130_fd_sc_hd__nor3_1
*I *996:X O *D sky130_fd_sc_hd__and2_1
*CAP
1 *1000:A2 0
2 *997:C 0.000576368
3 *996:X 0.00032638
4 *164:37 0.00254376
5 *164:12 0.00344651
6 *164:37 *1000:A1 0.000149419
7 *164:37 *1009:C1 0.00131462
8 *918:A *997:C 0.00127509
9 *918:A *164:37 0.000145466
10 *922:A *997:C 0.000130001
11 *952:A *997:C 3.36719e-05
12 *963:A *164:37 9.65217e-05
13 *975:A *164:12 0
14 *1000:C1 *164:37 1.01075e-05
15 *1062:RESET_B *997:C 0.000617616
16 *20:8 *164:37 0.00017754
17 *32:12 *997:C 1.21258e-05
18 *35:10 *997:C 0.000549052
19 *65:10 *164:37 7.66156e-05
20 *97:8 *164:12 0.000183477
21 *103:66 *164:37 2.12087e-05
22 *103:68 *164:37 6.57032e-05
23 *103:74 *164:37 0.000833567
24 *103:76 *164:37 9.66977e-05
25 *112:137 *164:37 0.00011308
26 *148:10 *164:12 0.000276456
27 *156:14 *997:C 0.00156615
28 *156:14 *164:37 8.60819e-05
29 *160:18 *164:37 3.41247e-05
30 *162:54 *164:12 0
*RES
1 *996:X *164:12 23.8357 
2 *164:12 *997:C 41.6393 
3 *164:12 *164:37 44.3571 
4 *164:37 *1000:A2 9.3 
*END

*D_NET *165 0.0158271
*CONN
*I *999:B I *D sky130_fd_sc_hd__nand2_2
*I *1004:A3 I *D sky130_fd_sc_hd__a31o_1
*I *998:X O *D sky130_fd_sc_hd__and2_1
*CAP
1 *999:B 0
2 *1004:A3 0.000169076
3 *998:X 0.00097061
4 *165:33 0.00128012
5 *165:12 0.0024198
6 *1004:A3 *1004:B1 0.00016924
7 *1004:A3 *203:60 0.000221365
8 *165:12 *907:A_N 5.33005e-05
9 *165:12 *907:B 4.51495e-05
10 *165:12 *907:D 1.14548e-05
11 *165:12 *180:10 7.57946e-05
12 *165:12 *180:21 0.000358812
13 *165:12 *180:32 0.000214341
14 *165:12 *180:43 0.000120339
15 *165:12 *191:90 0.000861564
16 *165:33 *187:47 7.85979e-05
17 *165:33 *191:22 1.98839e-05
18 *165:33 *198:43 0.000225307
19 *165:33 *203:60 0.00218231
20 *165:33 *203:98 0.000219289
21 *924:C *165:33 0.000394036
22 *930:A *165:33 0.000114577
23 *962:B *165:33 2.2121e-05
24 *1053:RESET_B *165:12 5.7483e-05
25 *1077:RESET_B *165:12 3.42464e-05
26 *48:20 *165:12 2.74229e-05
27 *93:30 *165:33 0.000208499
28 *93:40 *165:33 0.000845138
29 *98:12 *165:12 0.000568772
30 *111:8 *165:33 0.00157309
31 *137:31 *165:33 0.000178847
32 *137:33 *165:33 0.000219289
33 *146:12 *165:33 5.80706e-06
34 *146:38 *1004:A3 0.000460372
35 *146:38 *165:33 0.00142105
36 *146:51 *1004:A3 0
*RES
1 *998:X *165:12 38.4071 
2 *165:12 *1004:A3 14.4964 
3 *165:12 *165:33 49.9286 
4 *165:33 *999:B 13.8 
*END

*D_NET *166 0.0232113
*CONN
*I *1008:A2_N I *D sky130_fd_sc_hd__a2bb2o_1
*I *1000:B1 I *D sky130_fd_sc_hd__o211a_1
*I *1005:C I *D sky130_fd_sc_hd__or3_1
*I *224:DIODE I *D sky130_fd_sc_hd__diode_2
*I *1002:B I *D sky130_fd_sc_hd__xnor2_1
*I *999:Y O *D sky130_fd_sc_hd__nand2_2
*CAP
1 *1008:A2_N 0.000115724
2 *1000:B1 2.88764e-05
3 *1005:C 0
4 *224:DIODE 9.89444e-05
5 *1002:B 0.000265488
6 *999:Y 0.000514366
7 *166:69 0.000448845
8 *166:59 0.00391797
9 *166:29 0.0040429
10 *166:14 0.00114995
11 *166:8 0.0010686
12 *1002:B *1043:A 0.000293424
13 *1002:B *1068:CLK 7.2266e-05
14 *1002:B *168:14 0.000602729
15 *1002:B *177:123 0.000298357
16 *1008:A2_N *1008:A1_N 6.33897e-05
17 *166:8 *900:A 4.04691e-06
18 *166:8 *902:B 0.0010005
19 *166:8 *919:A 0.000144191
20 *166:8 *187:47 0.000754347
21 *166:8 *187:49 0.000168322
22 *166:8 *187:55 0.000211221
23 *166:8 *206:20 0.000136166
24 *166:8 *206:22 0.000215854
25 *166:14 *900:A 0.000241554
26 *166:14 *919:A 0.000756405
27 *166:14 *168:14 0.00013802
28 *166:14 *177:123 0.000161268
29 *166:29 *175:153 1.15281e-05
30 *166:59 *961:A 0.000976059
31 *166:59 *175:153 0.000637836
32 *166:59 *195:73 0.000288791
33 *166:59 *199:18 0.000379112
34 *166:59 *203:24 9.21209e-05
35 *166:59 *204:43 6.1413e-05
36 *166:59 *213:28 0.000605251
37 *166:69 *1005:A 8.14973e-05
38 *166:69 *200:20 1.3142e-05
39 *921:C *1002:B 0.000141036
40 *945:D *166:69 7.83659e-05
41 *985:A *166:69 0
42 *1000:C1 *1000:B1 5.04841e-06
43 *1000:C1 *166:29 2.60984e-05
44 *1000:C1 *166:59 5.41609e-05
45 *1005:B *166:69 7.57312e-05
46 *1008:B2 *1008:A2_N 0.000428639
47 *1008:B2 *166:8 0.000182384
48 *1078:D *166:59 0.000279812
49 *1078:RESET_B *166:59 0.000456252
50 *1086:A *166:59 7.45943e-05
51 *62:14 *166:69 7.72535e-05
52 *63:14 *166:59 6.98805e-05
53 *76:14 *166:59 0.000140968
54 *94:10 *166:69 0
55 *106:14 *166:59 0.000194115
56 *112:18 *166:59 0.000215056
57 *117:10 *1008:A2_N 0.000345257
58 *138:14 *166:59 0.000296872
59 *161:14 *166:69 9.25014e-06
*RES
1 *999:Y *166:8 33.3536 
2 *166:8 *166:14 12.625 
3 *166:14 *1002:B 23.175 
4 *166:14 *166:29 10.7857 
5 *166:29 *166:59 46.6675 
6 *166:59 *166:69 15.3475 
7 *166:69 *224:DIODE 10.6571 
8 *166:69 *1005:C 9.3 
9 *166:29 *1000:B1 10.0321 
10 *166:8 *1008:A2_N 18.0321 
*END

*D_NET *167 0.0270668
*CONN
*I *1008:A1_N I *D sky130_fd_sc_hd__a2bb2o_1
*I *1002:A I *D sky130_fd_sc_hd__xnor2_1
*I *1005:A I *D sky130_fd_sc_hd__or3_1
*I *1001:Y O *D sky130_fd_sc_hd__inv_2
*CAP
1 *1008:A1_N 0.000322495
2 *1002:A 0.000576526
3 *1005:A 0.00298876
4 *1001:Y 0.00178755
5 *167:43 0.00189778
6 *167:20 0.00398752
7 *167:18 0.00178755
8 *1002:A *919:A 1.18064e-05
9 *1002:A *919:C 0.0010363
10 *1002:A *168:14 0.000111706
11 *1002:A *177:117 0.000617202
12 *1002:A *207:18 3.25078e-05
13 *1005:A *903:C 1.1574e-05
14 *1005:A *170:16 0.000558828
15 *1005:A *194:49 0.000237525
16 *1005:A *212:25 1.18064e-05
17 *167:18 *1009:A1 0.000745699
18 *167:18 *182:17 0.000147511
19 *167:18 *182:28 0.000337945
20 *167:18 *182:72 0.000312429
21 *167:18 *185:27 0.000354811
22 *167:18 *189:61 0.000149996
23 *167:18 *191:33 0.000393047
24 *167:18 *191:43 0.000459612
25 *167:18 *205:12 4.65519e-05
26 *167:18 *214:72 0.000114511
27 *167:43 *903:C 0.000126622
28 *167:43 *919:C 7.99401e-05
29 *167:43 *207:18 4.27878e-05
30 *167:43 *213:14 0
31 *917:B *1005:A 0.000581554
32 *966:C *167:18 0.00102455
33 *970:C *167:18 5.33005e-05
34 *1005:B *1005:A 7.10831e-05
35 *1008:A2_N *1008:A1_N 6.33897e-05
36 *1008:B2 *1008:A1_N 2.36643e-05
37 *35:10 *1005:A 0.000262655
38 *36:26 *167:18 0.000216557
39 *53:22 *1005:A 0.003015
40 *70:16 *1005:A 3.56906e-05
41 *70:16 *167:43 9.78813e-05
42 *76:14 *1005:A 0
43 *86:51 *167:18 2.6809e-05
44 *91:27 *167:43 0
45 *103:66 *1005:A 0.000402206
46 *105:16 *1005:A 0.000961059
47 *108:16 *1002:A 0.000246981
48 *117:10 *1008:A1_N 0.000114587
49 *131:22 *1005:A 0.000388154
50 *135:16 *1005:A 3.8705e-05
51 *135:16 *167:43 7.75495e-06
52 *140:28 *167:43 2.84116e-05
53 *154:18 *167:18 3.63775e-05
54 *166:69 *1005:A 8.14973e-05
*RES
1 *1001:Y *167:18 49.4986 
2 *167:18 *167:20 3.41 
3 *167:20 *1005:A 34.6706 
4 *167:20 *167:43 6.84253 
5 *167:43 *1002:A 32.4429 
6 *167:43 *1008:A1_N 18.8893 
*END

*D_NET *168 0.0196899
*CONN
*I *1003:B I *D sky130_fd_sc_hd__nor2_1
*I *1002:Y O *D sky130_fd_sc_hd__xnor2_1
*CAP
1 *1003:B 0.000667218
2 *1002:Y 0.00255256
3 *168:26 0.00137434
4 *168:14 0.00325967
5 *1003:B *938:A 0.00245508
6 *1003:B *1027:A 0.00119414
7 *168:14 *919:A 0.000348941
8 *168:14 *1009:A1 0.00065297
9 *168:14 *173:90 0.000157181
10 *168:14 *184:66 0.000202925
11 *168:14 *204:43 0.000186958
12 *168:26 *1035:A 0.000162621
13 *168:26 *183:141 0.000135028
14 *168:26 *201:40 0.000914942
15 *168:26 *204:43 9.63536e-05
16 *168:26 *214:41 0.00030211
17 *980:C *168:26 0.000248706
18 *1002:A *168:14 0.000111706
19 *1002:B *168:14 0.000602729
20 *1003:A *1003:B 0.000369327
21 *1056:RESET_B *168:26 0.000326615
22 *1061:RESET_B *1003:B 0.00011173
23 *1078:RESET_B *168:14 0.00120699
24 *36:26 *168:14 2.01997e-05
25 *45:14 *168:26 0.00023263
26 *50:28 *168:14 0.000136508
27 *62:14 *1003:B 8.9372e-05
28 *74:14 *168:14 0.000293907
29 *108:16 *168:14 0
30 *112:18 *168:26 0.000228688
31 *137:20 *168:26 0.00026195
32 *160:18 *168:14 0.000647767
33 *166:14 *168:14 0.00013802
*RES
1 *1002:Y *168:14 36.799 
2 *168:14 *168:26 34.6875 
3 *168:26 *1003:B 33.675 
*END

*D_NET *169 0.0133127
*CONN
*I *1006:B I *D sky130_fd_sc_hd__and3_1
*I *1004:X O *D sky130_fd_sc_hd__a31o_1
*CAP
1 *1006:B 0
2 *1004:X 0.00166578
3 *169:18 0.00156801
4 *169:8 0.00323379
5 *169:8 *1004:B1 0.000386121
6 *169:8 *201:34 0.000263108
7 *169:8 *203:60 0.000717325
8 *169:18 *903:D 0.000779128
9 *169:18 *940:A 6.18969e-06
10 *169:18 *1006:C 6.31123e-05
11 *169:18 *1010:A 2.77933e-05
12 *169:18 *1010:B 0.00052948
13 *169:18 *1078:CLK 0.000729097
14 *169:18 *184:88 0.00128314
15 *169:18 *186:18 0.00105619
16 *169:18 *197:41 0
17 *169:18 *208:28 4.02969e-05
18 *169:18 *214:41 7.83659e-05
19 *20:129 *169:8 9.58126e-05
20 *103:113 *169:18 0.000693171
21 *109:10 *169:18 9.67754e-05
*RES
1 *1004:X *169:8 34.8714 
2 *169:8 *169:18 47.5179 
3 *169:18 *1006:B 9.3 
*END

*D_NET *170 0.0106999
*CONN
*I *1006:C I *D sky130_fd_sc_hd__and3_1
*I *1005:X O *D sky130_fd_sc_hd__or3_1
*CAP
1 *1006:C 0.000628833
2 *1005:X 0.00210769
3 *170:16 0.00273653
4 *1006:C *903:D 0.000393787
5 *1006:C *979:B 3.19901e-05
6 *1006:C *1010:A 0.00120497
7 *170:16 *194:49 0.000142241
8 *170:16 *194:57 0.000555487
9 *170:16 *207:16 2.91817e-05
10 *170:16 *214:41 0.000215894
11 *975:A *170:16 0.000272174
12 *975:B *170:16 6.57442e-05
13 *975:C *170:16 2.14757e-05
14 *1005:A *170:16 0.000558828
15 *1057:RESET_B *170:16 0.000674806
16 *103:113 *1006:C 0.000670256
17 *146:78 *170:16 0.000139913
18 *149:16 *170:16 0.000187041
19 *169:18 *1006:C 6.31123e-05
*RES
1 *1005:X *170:16 46.9607 
2 *170:16 *1006:C 30.925 
*END

*D_NET *171 0.0170964
*CONN
*I *1007:A I *D sky130_fd_sc_hd__buf_1
*I *1006:X O *D sky130_fd_sc_hd__and3_1
*CAP
1 *1007:A 0
2 *1006:X 0.00583273
3 *171:26 0.00583273
4 *171:26 *901:A1 9.11825e-07
5 *171:26 *977:A 0.00011932
6 *171:26 *1019:A 0.000106944
7 *171:26 *1076:CLK 6.27272e-06
8 *171:26 *184:88 0.000127807
9 *171:26 *195:28 0.0001742
10 *171:26 *195:73 7.53554e-06
11 *171:26 *196:89 0.000975368
12 *171:26 *199:18 0.00170413
13 *171:26 *200:35 0
14 *939:A2 *171:26 8.89061e-05
15 *1076:RESET_B *171:26 0.000128866
16 *20:22 *171:26 2.06112e-05
17 *27:26 *171:26 0.00109558
18 *38:26 *171:26 2.86383e-05
19 *60:16 *171:26 0
20 *63:14 *171:26 9.43919e-05
21 *129:26 *171:26 0.000167751
22 *148:54 *171:26 0
23 *151:26 *171:26 0
24 *152:28 *171:26 0.000583746
*RES
1 *1006:X *171:26 46.9034 
2 *171:26 *1007:A 9.3 
*END

*D_NET *172 0.00748052
*CONN
*I *1009:C1 I *D sky130_fd_sc_hd__o211a_1
*I *1008:X O *D sky130_fd_sc_hd__a2bb2o_1
*CAP
1 *1009:C1 0.000728102
2 *1008:X 0.00026047
3 *172:10 0.000988573
4 *1009:C1 *900:A 0.00168957
5 *1009:C1 *1009:A2 4.60153e-05
6 *1009:C1 *177:117 5.33005e-05
7 *1009:C1 *177:123 0.000216755
8 *172:10 *207:18 8.63416e-05
9 *935:B *172:10 0.000711926
10 *1009:B1 *1009:C1 5.7661e-06
11 *1080:RESET_B *172:10 9.15842e-06
12 *39:8 *1009:C1 8.41716e-05
13 *68:12 *1009:C1 0.000560353
14 *108:16 *172:10 0.000597167
15 *112:137 *1009:C1 4.82947e-05
16 *112:141 *1009:C1 1.10868e-05
17 *117:37 *172:10 6.88386e-05
18 *164:37 *1009:C1 0.00131462
*RES
1 *1008:X *172:10 28.4429 
2 *172:10 *1009:C1 32.4429 
*END

*D_NET *173 0.0266749
*CONN
*I *1015:A2 I *D sky130_fd_sc_hd__a21oi_1
*I *1011:B I *D sky130_fd_sc_hd__nor2_1
*I *1014:A2 I *D sky130_fd_sc_hd__a21boi_1
*I *1017:A2 I *D sky130_fd_sc_hd__a21oi_1
*I *1010:Y O *D sky130_fd_sc_hd__nor2_2
*CAP
1 *1015:A2 5.14488e-05
2 *1011:B 0
3 *1014:A2 4.13003e-05
4 *1017:A2 0.00124082
5 *1010:Y 0.000429006
6 *173:90 0.00605307
7 *173:60 0.00656515
8 *173:18 0.00248381
9 *173:12 0.00209133
10 *1014:A2 *184:33 2.30116e-06
11 *1014:A2 *184:66 8.09146e-06
12 *1015:A2 *1050:A 4.35244e-05
13 *1015:A2 *220:37 1.10868e-05
14 *1017:A2 *184:10 0.000182187
15 *1017:A2 *204:22 3.88987e-05
16 *173:12 *954:B 0.000484518
17 *173:12 *1010:B 0.000271345
18 *173:12 *197:20 1.63985e-05
19 *173:18 *982:A1 2.09115e-05
20 *173:18 *184:33 2.71829e-05
21 *173:60 *175:16 5.33005e-05
22 *173:60 *175:153 9.66977e-05
23 *173:60 *188:63 1.63801e-05
24 *173:60 *188:71 0.000120895
25 *173:60 *193:16 0.000140587
26 *173:90 *1042:A 0
27 *173:90 *175:153 5.59114e-05
28 *173:90 *199:78 6.45404e-05
29 *173:90 *210:34 3.28986e-05
30 *173:90 *217:14 0.000256896
31 *904:B *173:12 0
32 *921:B *173:12 1.82712e-05
33 *925:A *173:90 0.000714764
34 *939:C1 *173:12 7.44934e-05
35 *949:B *173:60 9.22222e-06
36 *1011:A *173:90 9.83442e-05
37 *1016:A *1017:A2 0.000451135
38 *1016:A *173:90 6.86682e-05
39 *1068:D *1017:A2 0.000389516
40 *1069:RESET_B *173:60 8.44271e-06
41 *1074:RESET_B *173:90 0.000428401
42 *1079:RESET_B *173:18 0.000506284
43 *1082:RESET_B *1015:A2 2.23592e-05
44 *1082:RESET_B *173:60 0.000231896
45 *38:26 *1017:A2 1.34923e-05
46 *50:28 *173:90 0.000156272
47 *74:14 *173:90 0
48 *78:30 *1017:A2 0.00019576
49 *86:51 *173:90 3.01276e-05
50 *87:69 *1017:A2 0.000180683
51 *93:126 *173:90 4.38568e-05
52 *95:21 *173:12 0.000183735
53 *109:10 *1014:A2 1.03926e-05
54 *109:10 *173:18 2.4654e-05
55 *117:37 *173:90 0.000118315
56 *126:47 *173:12 0
57 *126:47 *173:18 0.000175141
58 *126:47 *173:60 6.07474e-05
59 *129:26 *173:60 0.000140587
60 *133:30 *1015:A2 7.3743e-05
61 *133:30 *173:60 2.52428e-05
62 *138:14 *173:90 4.22986e-05
63 *160:18 *1017:A2 9.85245e-05
64 *160:18 *173:90 0.00102189
65 *168:14 *173:90 0.000157181
*RES
1 *1010:Y *173:12 28.2286 
2 *173:12 *173:18 19.6696 
3 *173:18 *1017:A2 26.6817 
4 *173:18 *1014:A2 14.3804 
5 *173:12 *173:60 18.2321 
6 *173:60 *173:90 48.9809 
7 *173:90 *1011:B 9.3 
8 *173:60 *1015:A2 11.0857 
*END

*D_NET *174 0.0021989
*CONN
*I *1013:A I *D sky130_fd_sc_hd__buf_1
*I *1012:X O *D sky130_fd_sc_hd__or3_1
*CAP
1 *1013:A 0.000374251
2 *1012:X 0.000374251
3 *1013:A *903:A 0.000161561
4 *1013:A *190:52 0.000397494
5 *1013:A *196:18 0.000163483
6 *1013:A *208:8 4.35597e-05
7 *20:58 *1013:A 0.000684301
*RES
1 *1012:X *1013:A 39.4929 
*END

*D_NET *175 0.0395575
*CONN
*I *1021:A I *D sky130_fd_sc_hd__inv_2
*I *1020:A I *D sky130_fd_sc_hd__inv_2
*I *1026:A I *D sky130_fd_sc_hd__inv_2
*I *1022:A I *D sky130_fd_sc_hd__inv_2
*I *1019:A I *D sky130_fd_sc_hd__inv_2
*I *1025:A I *D sky130_fd_sc_hd__inv_2
*I *1027:A I *D sky130_fd_sc_hd__inv_2
*I *1023:A I *D sky130_fd_sc_hd__inv_2
*I *1024:A I *D sky130_fd_sc_hd__inv_2
*I *1028:A I *D sky130_fd_sc_hd__inv_2
*I *1018:X O *D sky130_fd_sc_hd__buf_4
*CAP
1 *1021:A 0
2 *1020:A 2.31598e-05
3 *1026:A 5.31278e-05
4 *1022:A 2.28227e-05
5 *1019:A 0.000386791
6 *1025:A 0.00106641
7 *1027:A 0.000515014
8 *1023:A 0.0003754
9 *1024:A 1.01709e-05
10 *1028:A 0.000977059
11 *1018:X 0
12 *175:159 0.000689757
13 *175:153 0.00147716
14 *175:103 0.000937599
15 *175:80 0.00257256
16 *175:63 0.00172246
17 *175:50 0.00133448
18 *175:16 0.00295132
19 *175:4 0.00209798
20 *1019:A *927:A 0
21 *1019:A *977:A 2.09826e-05
22 *1024:A *222:12 7.78065e-06
23 *1028:A *995:A 0.00124346
24 *1028:A *184:10 1.55669e-05
25 *1028:A *184:16 5.7903e-06
26 *1028:A *221:22 0.000242106
27 *175:16 *1014:B1_N 0.000182804
28 *175:16 *1018:A 9.41642e-05
29 *175:16 *184:16 0.00020054
30 *175:16 *184:33 0.00123833
31 *175:16 *204:8 0.000138471
32 *175:16 *215:40 0.00127723
33 *175:50 *177:22 0.000629909
34 *175:63 *183:141 8.47008e-05
35 *175:80 *911:C1 9.56496e-05
36 *175:80 *1045:A 0
37 *175:80 *176:71 0
38 *175:80 *187:22 0.000681601
39 *175:80 *196:62 0.000122439
40 *175:103 *180:49 0.000181796
41 *175:103 *215:18 5.99954e-05
42 *175:153 *193:16 8.79668e-05
43 *175:153 *203:24 0.000180072
44 *175:159 *176:44 0.000414087
45 *175:159 *202:30 5.59046e-05
46 *175:159 *218:16 0
47 *912:A2 *175:80 4.71822e-05
48 *927:B *1019:A 0.000123295
49 *939:A1 *175:16 0.000113594
50 *982:A4 *1028:A 0.000230312
51 *982:A4 *175:50 0.000451087
52 *984:B *1025:A 0.000139393
53 *1000:C1 *175:153 0.000249069
54 *1003:B *1027:A 0.00119414
55 *1062:RESET_B *1028:A 1.02911e-05
56 *1064:D *175:63 0
57 *1064:D *175:80 0.000177812
58 *1065:RESET_B *1019:A 0.000272994
59 *1067:RESET_B *175:80 0.000463411
60 *1068:D *175:16 0.00195186
61 *1073:RESET_B *1020:A 1.4796e-05
62 *1073:RESET_B *1026:A 3.2033e-05
63 *1075:D *1019:A 1.00375e-05
64 *1075:D *1022:A 5.33005e-05
65 *1075:D *175:103 0.000437943
66 *1076:RESET_B *1019:A 0.000363089
67 *1077:RESET_B *1025:A 0.000361639
68 *1077:RESET_B *175:103 0.000212159
69 *1082:RESET_B *175:16 0.000334143
70 *20:22 *175:16 0.000471398
71 *20:195 *1019:A 2.13884e-05
72 *37:10 *175:63 0.00014478
73 *45:14 *175:16 7.49381e-05
74 *48:20 *1019:A 0.000348304
75 *48:20 *175:103 0.000106879
76 *49:16 *1020:A 7.25873e-06
77 *50:28 *175:159 2.06112e-05
78 *51:20 *1022:A 3.69047e-06
79 *52:10 *1023:A 0.000320208
80 *52:10 *175:63 0.000102016
81 *54:20 *1025:A 6.15526e-06
82 *60:16 *1019:A 0.000210531
83 *60:16 *175:103 4.71848e-05
84 *62:14 *1027:A 7.6507e-05
85 *65:10 *175:153 6.2589e-06
86 *65:10 *175:159 0.000466698
87 *68:12 *175:159 0.000510492
88 *87:69 *1028:A 1.00887e-05
89 *87:69 *175:50 0.00186453
90 *98:12 *1025:A 9.18679e-05
91 *119:41 *175:153 3.01806e-05
92 *126:47 *175:16 1.94879e-05
93 *128:12 *175:63 8.89218e-05
94 *128:12 *175:80 0.000258974
95 *133:30 *175:16 8.09163e-05
96 *133:30 *175:153 4.60235e-05
97 *138:14 *175:153 0.000439047
98 *146:78 *175:50 0.000370124
99 *146:80 *175:50 0.000268054
100 *148:41 *1019:A 0.000103266
101 *148:54 *1019:A 8.32118e-05
102 *154:44 *1025:A 5.51615e-05
103 *154:44 *175:80 0.000121891
104 *166:29 *175:153 1.15281e-05
105 *166:59 *175:153 0.000637836
106 *171:26 *1019:A 0.000106944
107 *173:60 *175:16 5.33005e-05
108 *173:60 *175:153 9.66977e-05
109 *173:90 *175:153 5.59114e-05
*RES
1 *1018:X *175:4 9.3 
2 *175:4 *175:16 31.3326 
3 *175:16 *1028:A 29.6214 
4 *175:16 *1024:A 13.9607 
5 *175:16 *175:50 29.9821 
6 *175:50 *1023:A 15.9964 
7 *175:50 *175:63 9.53571 
8 *175:63 *1027:A 25.425 
9 *175:63 *175:80 30.1786 
10 *175:80 *1025:A 23.3 
11 *175:80 *175:103 20.4464 
12 *175:103 *1019:A 31.8714 
13 *175:103 *1022:A 9.83571 
14 *175:4 *175:153 37.0357 
15 *175:153 *175:159 26.4286 
16 *175:159 *1026:A 10.2464 
17 *175:159 *1020:A 9.83571 
18 *175:153 *1021:A 9.3 
*END

*D_NET *176 0.0467124
*CONN
*I *1033:A I *D sky130_fd_sc_hd__inv_2
*I *1030:A I *D sky130_fd_sc_hd__inv_2
*I *1038:A I *D sky130_fd_sc_hd__inv_2
*I *1039:A I *D sky130_fd_sc_hd__inv_2
*I *1035:A I *D sky130_fd_sc_hd__inv_2
*I *1036:A I *D sky130_fd_sc_hd__inv_2
*I *1032:A I *D sky130_fd_sc_hd__inv_2
*I *1037:A I *D sky130_fd_sc_hd__inv_2
*I *1031:A I *D sky130_fd_sc_hd__inv_2
*I *1034:A I *D sky130_fd_sc_hd__inv_2
*I *1029:X O *D sky130_fd_sc_hd__clkbuf_8
*CAP
1 *1033:A 6.9986e-05
2 *1030:A 0.000251497
3 *1038:A 0.000645789
4 *1039:A 0.000170629
5 *1035:A 0.00025598
6 *1036:A 0
7 *1032:A 0
8 *1037:A 0
9 *1031:A 1.45159e-05
10 *1034:A 0.00032785
11 *1029:X 0.00016416
12 *176:141 0.0012381
13 *176:135 0.00117246
14 *176:118 0.00209685
15 *176:89 0.00152283
16 *176:82 0.000249991
17 *176:71 0.0011242
18 *176:61 0.00189123
19 *176:44 0.0014175
20 *176:16 0.000529552
21 *176:14 0.00175917
22 *176:6 0.000937978
23 *1030:A *966:A 2.83284e-06
24 *1030:A *981:B2 6.71687e-05
25 *1030:A *182:85 5.33005e-05
26 *1030:A *197:81 6.95595e-05
27 *1033:A *966:A 0.000126572
28 *1033:A *187:45 6.42095e-05
29 *1034:A *945:B 0.000477606
30 *1034:A *201:56 1.24368e-05
31 *1035:A *201:40 6.95892e-05
32 *1038:A *1065:CLK 0.000532711
33 *1038:A *196:108 0.000100368
34 *1038:A *197:81 2.44318e-05
35 *1039:A *941:A 0.00026353
36 *1039:A *183:121 0.000221365
37 *1039:A *209:66 6.36446e-05
38 *1039:A *214:62 5.41794e-05
39 *176:14 *204:22 0.000167586
40 *176:16 *201:56 0.000680605
41 *176:44 *980:B 7.03791e-05
42 *176:44 *201:56 0.000691089
43 *176:44 *218:16 0
44 *176:44 *219:16 0.0029353
45 *176:61 *188:24 0.00119684
46 *176:61 *215:22 0.00102362
47 *176:61 *215:32 3.10885e-05
48 *176:71 *1045:A 0.000749769
49 *176:71 *193:30 6.94952e-05
50 *176:71 *212:29 0.000730798
51 *176:71 *212:37 7.09373e-05
52 *176:71 *215:12 0.000137983
53 *176:82 *193:30 0.000336517
54 *176:89 *193:30 0.000327789
55 *176:118 *178:8 5.52238e-05
56 *176:118 *192:61 0.000279318
57 *176:118 *193:30 0.000252652
58 *176:135 *966:A 0.000221219
59 *176:135 *209:66 0.000377315
60 *176:141 *966:B 0.000527297
61 *176:141 *981:B2 0
62 *895:A2 *1038:A 2.67875e-05
63 *895:C1 *1038:A 0.000195331
64 *899:B1 *176:118 5.49489e-05
65 *909:A2 *176:71 1.98839e-05
66 *909:A2 *176:82 0.000145042
67 *909:A2 *176:89 0.000340995
68 *909:A2 *176:118 0.000260574
69 *909:A3 *176:61 0
70 *909:A3 *176:71 0.00034188
71 *909:A3 *176:82 0.000226867
72 *909:B1 *176:71 5.33005e-05
73 *911:B1 *176:71 6.14702e-06
74 *930:A *176:141 0.000658602
75 *936:B *176:135 6.26552e-05
76 *936:C *1039:A 0.000188554
77 *936:C *176:135 0.00093017
78 *980:C *1034:A 9.46929e-05
79 *980:C *176:16 0.000165917
80 *980:C *176:44 8.28727e-05
81 *981:C1 *1030:A 0.000167007
82 *1054:D *1033:A 0.000262504
83 *1054:D *176:135 0.000219711
84 *1056:D *1035:A 5.33005e-05
85 *1062:D *176:6 0.000207163
86 *1062:D *176:14 6.57032e-05
87 *1070:RESET_B *176:118 1.81829e-05
88 *1071:D *176:141 0
89 *1075:RESET_B *176:71 6.52495e-05
90 *1076:RESET_B *1038:A 4.43256e-05
91 *1086:A *176:118 0.000208187
92 *28:18 *176:118 0.000118752
93 *30:10 *1038:A 0.00096982
94 *35:10 *176:71 0
95 *60:16 *176:71 3.32631e-05
96 *63:14 *1035:A 7.20217e-06
97 *65:10 *176:44 0.000574118
98 *79:14 *1035:A 9.96553e-05
99 *84:29 *176:118 0.000739439
100 *85:42 *1038:A 5.25675e-05
101 *87:69 *176:71 1.50087e-05
102 *90:16 *176:135 0.000677619
103 *92:14 *176:71 0.000145697
104 *94:10 *1034:A 0.000292547
105 *95:63 *176:118 0.000442845
106 *97:8 *176:6 0.000139631
107 *100:10 *176:71 0.000329299
108 *102:14 *176:71 8.23597e-06
109 *112:18 *1035:A 0.000231154
110 *112:39 *1035:A 0.000296556
111 *115:14 *1030:A 5.33005e-05
112 *115:14 *1038:A 0.000142619
113 *133:60 *176:14 0.000165932
114 *133:79 *176:71 0.00132408
115 *136:12 *176:71 0.000896687
116 *137:20 *176:44 0.00240135
117 *142:16 *176:135 2.90709e-05
118 *142:16 *176:141 1.76569e-05
119 *144:18 *176:118 0.000339346
120 *151:26 *1038:A 0.00014225
121 *159:22 *176:118 0.000206472
122 *162:28 *1035:A 0.000118982
123 *162:54 *176:16 0.000344232
124 *162:54 *176:44 0.000637161
125 *168:26 *1035:A 0.000162621
126 *175:80 *176:71 0
127 *175:159 *176:44 0.000414087
*RES
1 *1029:X *176:6 13.1214 
2 *176:6 *176:14 12.6071 
3 *176:14 *176:16 6.69643 
4 *176:16 *1034:A 17.7821 
5 *176:16 *1031:A 9.72857 
6 *176:14 *176:44 49.8571 
7 *176:44 *1037:A 13.8 
8 *176:6 *176:61 27.0893 
9 *176:61 *176:71 45.6786 
10 *176:71 *1032:A 9.3 
11 *176:61 *176:82 5.60714 
12 *176:82 *1036:A 9.3 
13 *176:82 *176:89 3.41071 
14 *176:89 *1035:A 25.9429 
15 *176:89 *176:118 41.3929 
16 *176:118 *1039:A 18.9429 
17 *176:118 *176:135 26.5357 
18 *176:135 *176:141 18.2321 
19 *176:141 *1038:A 36.2286 
20 *176:141 *1030:A 23.675 
21 *176:135 *1033:A 11.8893 
*END

*D_NET *177 0.0397195
*CONN
*I *1041:A I *D sky130_fd_sc_hd__inv_2
*I *1050:A I *D sky130_fd_sc_hd__inv_2
*I *1043:A I *D sky130_fd_sc_hd__inv_2
*I *1042:A I *D sky130_fd_sc_hd__inv_2
*I *1044:A I *D sky130_fd_sc_hd__inv_2
*I *1047:A I *D sky130_fd_sc_hd__inv_2
*I *1048:A I *D sky130_fd_sc_hd__inv_2
*I *1049:A I *D sky130_fd_sc_hd__inv_2
*I *1045:A I *D sky130_fd_sc_hd__inv_2
*I *1046:A I *D sky130_fd_sc_hd__inv_2
*I *1040:X O *D sky130_fd_sc_hd__buf_4
*CAP
1 *1041:A 0
2 *1050:A 0.000901685
3 *1043:A 0.000185385
4 *1042:A 0.00020151
5 *1044:A 0.000546539
6 *1047:A 0
7 *1048:A 5.42416e-05
8 *1049:A 3.84459e-05
9 *1045:A 0.000400536
10 *1046:A 0.000326853
11 *1040:X 0
12 *177:123 0.0013582
13 *177:117 0.000915342
14 *177:89 0.00112733
15 *177:80 0.00209673
16 *177:61 0.00186132
17 *177:57 0.00130098
18 *177:22 0.00168899
19 *177:16 0.00261384
20 *177:12 0.0028506
21 *177:4 0.00172705
22 *1045:A *911:C1 0
23 *1050:A *1015:A1 9.54798e-06
24 *1050:A *220:37 0.00013833
25 *177:12 *190:20 0.000560905
26 *177:12 *193:16 0
27 *177:22 *908:A_N 0.000360288
28 *177:57 *181:44 0.000727767
29 *177:57 *207:16 0.000935321
30 *177:61 *202:30 0.000147835
31 *177:80 *920:A2 1.01912e-05
32 *177:80 *202:30 0.000525428
33 *177:80 *205:12 0.000147471
34 *177:89 *199:78 0.000310982
35 *177:117 *207:18 0.000126446
36 *177:123 *900:A 9.25014e-06
37 *177:123 *919:B 0.000174259
38 seg[0] *177:80 2.7883e-05
39 *925:A *1042:A 0
40 *960:B *1046:A 6.05161e-06
41 *960:B *177:22 8.78853e-05
42 *980:C *177:16 8.48366e-05
43 *1002:A *177:117 0.000617202
44 *1002:B *1043:A 0.000293424
45 *1002:B *177:123 0.000298357
46 *1009:C1 *177:117 5.33005e-05
47 *1009:C1 *177:123 0.000216755
48 *1015:A2 *1050:A 4.35244e-05
49 *1015:B1 *1050:A 9.54798e-06
50 *1057:D *177:57 0.00048933
51 *1057:D *177:117 0.000547006
52 *1062:D *177:16 0.00125049
53 *1068:D *1050:A 0.000785588
54 *1074:RESET_B *1050:A 0.00159462
55 *1080:RESET_B *1048:A 4.58194e-05
56 *1082:RESET_B *1050:A 3.45371e-05
57 *21:16 *1042:A 0.000388793
58 *21:16 *177:80 0.000600519
59 *21:16 *177:89 0.00099959
60 *23:24 *1050:A 9.26931e-05
61 *39:8 *177:117 4.27935e-05
62 *39:8 *177:123 0.000216755
63 *42:12 *177:80 0.000347993
64 *53:22 *177:22 4.26495e-05
65 *65:10 *177:57 3.85639e-05
66 *70:16 *1043:A 0
67 *70:16 *177:123 0
68 *73:12 *1046:A 0.000113295
69 *74:14 *177:80 0.000742409
70 *87:69 *1045:A 6.54574e-05
71 *87:69 *177:22 0.000493881
72 *91:27 *177:80 9.68015e-05
73 *93:50 *177:22 0.000378279
74 *93:126 *1050:A 2.59169e-05
75 *93:126 *177:12 0.000119904
76 *97:8 *177:12 0.000181837
77 *97:8 *177:16 4.61749e-05
78 *102:51 *177:80 1.69321e-05
79 *108:16 *177:117 0.000249726
80 *117:10 *1048:A 0.000136951
81 *128:12 *177:22 1.97827e-05
82 *130:12 *177:61 0
83 *130:12 *177:80 0
84 *133:30 *1050:A 2.85378e-05
85 *139:14 *177:57 9.75531e-05
86 *141:18 *1050:A 6.87975e-06
87 *146:72 *177:22 0.0016737
88 *146:78 *177:22 4.84319e-05
89 *166:14 *177:123 0.000161268
90 *173:90 *1042:A 0
91 *175:50 *177:22 0.000629909
92 *175:80 *1045:A 0
93 *176:71 *1045:A 0.000749769
*RES
1 *1040:X *177:4 9.3 
2 *177:4 *177:12 23.9107 
3 *177:12 *177:16 24.75 
4 *177:16 *177:22 34.9286 
5 *177:22 *1046:A 14.7643 
6 *177:22 *1045:A 28.1393 
7 *177:12 *1049:A 10.0321 
8 *177:4 *177:57 23.4286 
9 *177:57 *177:61 6.44643 
10 *177:61 *1048:A 15.1571 
11 *177:61 *177:80 26.0475 
12 *177:80 *1047:A 13.8 
13 *177:80 *177:89 12.5714 
14 *177:89 *1044:A 21.3179 
15 *177:89 *1042:A 18.7821 
16 *177:57 *177:117 23.0179 
17 *177:117 *177:123 12.7232 
18 *177:123 *1043:A 17.7196 
19 *177:123 *1050:A 26.6632 
20 *177:117 *1041:A 9.3 
*END

*D_NET *178 0.0117974
*CONN
*I *1090:A I *D sky130_fd_sc_hd__clkbuf_16
*I *1088:A I *D sky130_fd_sc_hd__clkbuf_16
*I *1087:A I *D sky130_fd_sc_hd__clkbuf_16
*I *1089:A I *D sky130_fd_sc_hd__clkbuf_16
*I *1086:X O *D sky130_fd_sc_hd__clkbuf_16
*CAP
1 *1090:A 0.000568565
2 *1088:A 0.00060895
3 *1087:A 0
4 *1089:A 0.000251903
5 *1086:X 1.1624e-05
6 *178:33 0.00176838
7 *178:14 0.00175931
8 *178:8 0.000928172
9 *1088:A *201:34 0.000149498
10 *1088:A *205:30 0.000843998
11 *1089:A *185:43 0.000436941
12 *1090:A *905:B 3.58934e-05
13 *1090:A *905:D 0.000169597
14 *1090:A *191:90 0.000204919
15 *1090:A *192:86 0.000304821
16 *1090:A *203:48 0.00016719
17 *1090:A *203:98 0.000135391
18 *1090:A *208:28 8.39516e-05
19 *1090:A *214:98 9.25014e-06
20 *178:14 *905:B 2.04558e-05
21 *178:14 *905:C 0.000142102
22 *178:14 *905:D 0.000232163
23 *178:14 *190:14 0.000164766
24 *178:33 *205:30 0.000158785
25 *960:C *1090:A 0.000474133
26 *976:A *1088:A 3.19935e-05
27 *1056:RESET_B *1088:A 0.000980138
28 *1056:RESET_B *178:33 2.11419e-05
29 *1084:RESET_B *1090:A 7.03279e-05
30 *20:129 *178:14 0.000109582
31 *84:29 *178:8 5.52238e-05
32 *90:16 *1090:A 5.14628e-05
33 *91:27 *178:33 0.000384146
34 *95:32 *178:14 1.1399e-05
35 *95:63 *178:14 0.000142974
36 *162:28 *1088:A 0.000143744
37 *162:38 *1088:A 9.73661e-05
38 *162:38 *178:33 1.19071e-05
39 *176:118 *178:8 5.52238e-05
*RES
1 *1086:X *178:8 14.3357 
2 *178:8 *178:14 8.375 
3 *178:14 *1089:A 18.4429 
4 *178:14 *178:33 9.44992 
5 *178:33 *1087:A 13.8 
6 *178:33 *1088:A 31.2286 
7 *178:8 *1090:A 29.2464 
*END

*D_NET *179 0.0106062
*CONN
*I *1091:A I *D sky130_fd_sc_hd__bufinv_16
*I *1053:CLK I *D sky130_fd_sc_hd__dfrtp_4
*I *1073:CLK I *D sky130_fd_sc_hd__dfrtp_2
*I *1062:CLK I *D sky130_fd_sc_hd__dfrtp_2
*I *1079:CLK I *D sky130_fd_sc_hd__dfrtp_2
*I *1074:CLK I *D sky130_fd_sc_hd__dfrtp_2
*I *1082:CLK I *D sky130_fd_sc_hd__dfrtp_4
*I *1087:X O *D sky130_fd_sc_hd__clkbuf_16
*CAP
1 *1091:A 4.03545e-05
2 *1053:CLK 0.000115928
3 *1073:CLK 0.000591833
4 *1062:CLK 0
5 *1079:CLK 0.000108679
6 *1074:CLK 0.000118763
7 *1082:CLK 0.000170534
8 *1087:X 0.000121256
9 *179:35 0.000375046
10 *179:22 0.000613863
11 *179:18 0.000436222
12 *179:16 0.000821254
13 *179:14 0.000337555
14 *179:10 0.000294313
15 *1053:CLK *190:52 9.89626e-05
16 *1074:CLK *214:16 4.05819e-05
17 *179:10 *183:141 6.57032e-05
18 *179:14 *214:16 9.15842e-06
19 *179:16 *214:16 0.00020992
20 *179:18 *214:16 0.000374363
21 *179:22 *214:16 0.000735859
22 *179:35 *214:16 4.04691e-06
23 *897:B *1091:A 0.000136727
24 *1003:A *1053:CLK 6.91411e-05
25 *1016:A *1082:CLK 2.38501e-05
26 *1016:A *179:35 8.48937e-05
27 *1053:RESET_B *179:10 0.00014261
28 *1053:RESET_B *179:14 8.57485e-05
29 *1056:D *1091:A 0.000135028
30 *1064:RESET_B *179:10 8.85344e-05
31 *1073:D *1073:CLK 0.000495156
32 *1079:D *1079:CLK 0.000261827
33 *1082:RESET_B *1082:CLK 0.000332096
34 *1082:RESET_B *179:35 8.95645e-05
35 *20:58 *1053:CLK 8.63226e-05
36 *38:26 *179:35 0.000143858
37 *52:10 *179:10 0.000135028
38 *59:16 *179:14 4.69217e-06
39 *81:16 *1082:CLK 0.000602771
40 *81:16 *179:14 0.000161466
41 *81:16 *179:16 0.00020189
42 *81:16 *179:18 0.000366469
43 *81:16 *179:22 0.000735859
44 *84:12 *1074:CLK 0
45 *89:16 *1073:CLK 0.000105471
46 *133:14 *1074:CLK 9.0789e-05
47 *133:14 *179:35 6.69257e-05
48 *133:60 *1073:CLK 0.000266057
49 *133:60 *179:35 9.21418e-06
*RES
1 *1087:X *179:10 17.1036 
2 *179:10 *179:14 3.08929 
3 *179:14 *179:16 2.85714 
4 *179:16 *179:18 4.98214 
5 *179:18 *179:22 14.3393 
6 *179:22 *1082:CLK 15.5857 
7 *179:22 *179:35 8.51786 
8 *179:35 *1074:CLK 16.3536 
9 *179:35 *1079:CLK 16.3402 
10 *179:18 *1062:CLK 13.8 
11 *179:16 *1073:CLK 25.8357 
12 *179:14 *1053:CLK 16.8 
13 *179:10 *1091:A 15.1571 
*END

*D_NET *180 0.0121497
*CONN
*I *1061:CLK I *D sky130_fd_sc_hd__dfrtp_1
*I *1077:CLK I *D sky130_fd_sc_hd__dfrtp_1
*I *1076:CLK I *D sky130_fd_sc_hd__dfrtp_2
*I *1075:CLK I *D sky130_fd_sc_hd__dfrtp_2
*I *1081:CLK I *D sky130_fd_sc_hd__dfrtp_4
*I *1064:CLK I *D sky130_fd_sc_hd__dfrtp_4
*I *1055:CLK I *D sky130_fd_sc_hd__dfrtp_4
*I *1092:A I *D sky130_fd_sc_hd__clkinv_2
*I *1088:X O *D sky130_fd_sc_hd__clkbuf_16
*CAP
1 *1061:CLK 0.000614002
2 *1077:CLK 0.000129237
3 *1076:CLK 0.000288522
4 *1075:CLK 0
5 *1081:CLK 0.000443431
6 *1064:CLK 0.000213344
7 *1055:CLK 0.000343052
8 *1092:A 3.39029e-05
9 *1088:X 0
10 *180:49 0.000543665
11 *180:45 0.000610691
12 *180:43 0.000427846
13 *180:32 0.000368741
14 *180:21 0.000530506
15 *180:10 0.000407198
16 *180:4 0.000878565
17 *1055:CLK *187:22 0.000469608
18 *1055:CLK *198:33 7.7154e-05
19 *1061:CLK *188:24 0
20 *1061:CLK *194:29 0.000143375
21 *1077:CLK *907:A_N 0.000262223
22 *1077:CLK *907:B 5.49489e-05
23 *1081:CLK *183:24 0.00036236
24 *1081:CLK *200:8 5.33005e-05
25 *180:43 *191:90 2.2927e-05
26 *180:45 *191:90 1.54726e-05
27 *912:A1 *180:45 0
28 *960:B *1061:CLK 0.000226979
29 *960:B *1092:A 2.59355e-05
30 *960:B *180:10 0.000303092
31 *1075:D *1081:CLK 7.61932e-05
32 *1075:D *180:49 2.28499e-05
33 *1076:D *1076:CLK 2.89114e-05
34 *1077:RESET_B *1077:CLK 0.000103977
35 *1081:D *1081:CLK 7.77652e-05
36 *38:26 *1076:CLK 0.000110238
37 *47:18 *1061:CLK 2.06112e-05
38 *48:20 *1076:CLK 0.000238622
39 *48:20 *180:10 7.75022e-05
40 *48:20 *180:21 0.000349562
41 *48:20 *180:32 0.000205183
42 *48:20 *180:43 0.000159989
43 *48:20 *180:45 0.000367883
44 *51:20 *1061:CLK 0
45 *60:16 *1076:CLK 0
46 *133:79 *1055:CLK 0.000480103
47 *134:18 *1055:CLK 0.00022093
48 *148:35 *1061:CLK 0.000417268
49 *148:41 *1076:CLK 1.53528e-05
50 *148:41 *180:45 0
51 *148:54 *1076:CLK 4.12907e-05
52 *149:16 *1061:CLK 3.9267e-05
53 *154:44 *1064:CLK 0.000210722
54 *155:39 *1061:CLK 7.80776e-05
55 *165:12 *180:10 7.57946e-05
56 *165:12 *180:21 0.000358812
57 *165:12 *180:32 0.000214341
58 *165:12 *180:43 0.000120339
59 *171:26 *1076:CLK 6.27272e-06
60 *175:103 *180:49 0.000181796
*RES
1 *1088:X *180:4 9.3 
2 *180:4 *180:10 8.53571 
3 *180:10 *1092:A 14.3357 
4 *180:10 *180:21 4.67857 
5 *180:21 *1055:CLK 22.9607 
6 *180:21 *180:32 2.85714 
7 *180:32 *1064:CLK 18.0321 
8 *180:32 *180:43 2.25 
9 *180:43 *180:45 4.98214 
10 *180:45 *180:49 6.67857 
11 *180:49 *1081:CLK 19.6929 
12 *180:49 *1075:CLK 9.3 
13 *180:45 *1076:CLK 19.9786 
14 *180:43 *1077:CLK 16.925 
15 *180:4 *1061:CLK 29.675 
*END

*D_NET *181 0.0234996
*CONN
*I *1080:CLK I *D sky130_fd_sc_hd__dfrtp_1
*I *1059:CLK I *D sky130_fd_sc_hd__dfrtp_1
*I *1066:CLK I *D sky130_fd_sc_hd__dfrtp_1
*I *1056:CLK I *D sky130_fd_sc_hd__dfrtp_2
*I *1093:A I *D sky130_fd_sc_hd__clkbuf_4
*I *1058:CLK I *D sky130_fd_sc_hd__dfrtp_2
*I *1057:CLK I *D sky130_fd_sc_hd__dfrtp_1
*I *1078:CLK I *D sky130_fd_sc_hd__dfrtp_4
*I *1069:CLK I *D sky130_fd_sc_hd__dfrtp_1
*I *1068:CLK I *D sky130_fd_sc_hd__dfrtp_2
*I *1089:X O *D sky130_fd_sc_hd__clkbuf_16
*CAP
1 *1080:CLK 0.000623763
2 *1059:CLK 0
3 *1066:CLK 3.92796e-05
4 *1056:CLK 0.000120815
5 *1093:A 0.00032624
6 *1058:CLK 0
7 *1057:CLK 0
8 *1078:CLK 0.000560413
9 *1069:CLK 0
10 *1068:CLK 0.000442046
11 *1089:X 3.61152e-05
12 *181:100 0.00101208
13 *181:92 0.00175617
14 *181:82 0.00163696
15 *181:44 0.000873891
16 *181:20 0.000953985
17 *181:18 0.00103296
18 *181:12 0.000282239
19 *181:10 0.000454324
20 *181:8 0.000198518
21 *1056:CLK *183:61 0.000146934
22 *1056:CLK *183:77 0.000165663
23 *1056:CLK *196:18 0.000303707
24 *1066:CLK *938:A 2.59355e-05
25 *1066:CLK *183:61 7.61348e-05
26 *1066:CLK *196:18 5.36422e-05
27 *1068:CLK *189:71 0
28 *1068:CLK *192:18 5.51716e-05
29 *1078:CLK *1010:B 0.000727443
30 *1078:CLK *207:16 0.000152013
31 *1078:CLK *214:41 6.05161e-06
32 *1080:CLK *915:A 4.37451e-05
33 *1080:CLK *915:B 0.000351476
34 *1093:A *932:B 0.00010698
35 *1093:A *183:121 4.48128e-05
36 *1093:A *192:43 0.000298483
37 *1093:A *206:18 0.000182671
38 *1093:A *208:93 5.20751e-05
39 *181:8 *206:18 9.41642e-05
40 *181:10 *209:24 0.000110839
41 *181:10 *214:62 0.000119461
42 *181:12 *209:24 0.000231807
43 *181:12 *214:62 0.000241895
44 *181:18 *903:C 6.36172e-05
45 *181:18 *192:43 3.38855e-05
46 *181:18 *209:24 0.000147751
47 *181:18 *214:62 0.000170871
48 *181:20 *191:43 4.11224e-05
49 *181:20 *192:18 0.000177682
50 *181:20 *192:43 0.000507318
51 *181:44 *1040:A 0.000305189
52 *181:44 *203:24 9.58181e-05
53 *181:44 *207:16 5.19211e-05
54 *181:82 *209:24 0.000201246
55 *181:82 *214:62 0.000208876
56 *181:92 *209:18 0.000115165
57 *181:100 *183:61 0.000226683
58 *181:100 *190:8 7.22574e-05
59 *181:100 *212:58 1.70398e-05
60 *917:A *1080:CLK 0.000526916
61 *917:A *181:92 0.000226985
62 *921:A *1068:CLK 0.000446215
63 *921:C *1068:CLK 0.000381272
64 *928:B *1093:A 5.49489e-05
65 *963:B *181:18 5.15925e-05
66 *963:B *181:20 0.000707407
67 *989:B *1080:CLK 2.59355e-05
68 *990:A *1080:CLK 5.9455e-05
69 *990:A *181:92 0.000122084
70 *990:C *1080:CLK 8.36234e-05
71 *1002:B *1068:CLK 7.2266e-05
72 *1057:D *1078:CLK 6.65164e-05
73 *1057:D *181:44 0.000582132
74 *1066:RESET_B *181:92 5.29198e-05
75 *1066:RESET_B *181:100 0.000213786
76 *1068:RESET_B *1068:CLK 0.000745123
77 *1073:RESET_B *1093:A 2.47753e-05
78 *1080:RESET_B *1080:CLK 4.58194e-05
79 *20:104 *1093:A 5.65955e-05
80 *20:104 *181:8 4.58194e-05
81 *46:10 *1066:CLK 1.34741e-05
82 *70:16 *1068:CLK 0.000141941
83 *103:38 *181:92 2.00602e-05
84 *114:20 *1093:A 0.000186765
85 *119:41 *1068:CLK 1.6815e-05
86 *119:41 *181:18 4.31104e-05
87 *119:41 *181:20 0.000196926
88 *137:20 *181:20 7.6644e-05
89 *137:31 *181:18 0.0001188
90 *137:31 *181:20 0.000258684
91 *169:18 *1078:CLK 0.000729097
92 *177:57 *181:44 0.000727767
*RES
1 *1089:X *181:8 14.7464 
2 *181:8 *181:10 1.64286 
3 *181:10 *181:12 3.16071 
4 *181:12 *181:18 5.33929 
5 *181:18 *181:20 15 
6 *181:20 *1068:CLK 29.0321 
7 *181:20 *1069:CLK 13.8 
8 *181:18 *181:44 16.125 
9 *181:44 *1078:CLK 32.7821 
10 *181:44 *1057:CLK 9.3 
11 *181:12 *1058:CLK 13.8 
12 *181:10 *1093:A 21.7286 
13 *181:8 *181:82 7.35714 
14 *181:82 *181:92 12.5179 
15 *181:92 *181:100 16.5714 
16 *181:100 *1056:CLK 17.8714 
17 *181:100 *1066:CLK 15.0679 
18 *181:92 *1059:CLK 9.3 
19 *181:82 *1080:CLK 22.1571 
*END

*D_NET *182 0.0185526
*CONN
*I *1065:CLK I *D sky130_fd_sc_hd__dfrtp_2
*I *1063:CLK I *D sky130_fd_sc_hd__dfrtp_2
*I *1060:CLK I *D sky130_fd_sc_hd__dfrtp_2
*I *1083:CLK I *D sky130_fd_sc_hd__dfrtp_4
*I *1084:CLK I *D sky130_fd_sc_hd__dfrtp_4
*I *1054:CLK I *D sky130_fd_sc_hd__dfrtp_4
*I *1072:CLK I *D sky130_fd_sc_hd__dfrtp_4
*I *1070:CLK I *D sky130_fd_sc_hd__dfrtp_4
*I *1071:CLK I *D sky130_fd_sc_hd__dfrtp_4
*I *1067:CLK I *D sky130_fd_sc_hd__dfrtp_4
*I *1090:X O *D sky130_fd_sc_hd__clkbuf_16
*CAP
1 *1065:CLK 0.00029434
2 *1063:CLK 6.29958e-05
3 *1060:CLK 0.000404626
4 *1083:CLK 0
5 *1084:CLK 0
6 *1054:CLK 0.000319673
7 *1072:CLK 0.000195481
8 *1070:CLK 0.000502815
9 *1071:CLK 0.00011104
10 *1067:CLK 9.55502e-05
11 *1090:X 0
12 *182:85 0.000758427
13 *182:81 0.000686225
14 *182:72 0.000414405
15 *182:36 0.000804881
16 *182:34 0.000426257
17 *182:32 0.000243523
18 *182:28 0.00073398
19 *182:17 0.000349051
20 *182:4 0.00015643
21 *1054:CLK *966:A 0.000311121
22 *1054:CLK *187:45 0.000488389
23 *1054:CLK *189:61 0.000185384
24 *1060:CLK *902:C 0.000667937
25 *1060:CLK *902:D 1.20379e-05
26 *1060:CLK *910:B 0
27 *1060:CLK *983:B 0.000142043
28 *1067:CLK *191:22 5.03772e-05
29 *1070:CLK *189:61 0.00108023
30 *1071:CLK *214:72 2.59355e-05
31 *1072:CLK *198:37 0.00064481
32 *182:17 *214:72 0.000100926
33 *182:36 *189:61 0.000162621
34 *182:85 *966:B 0.000136958
35 *895:B1 *1063:CLK 0.000195396
36 *895:B1 *182:85 0.000481282
37 *966:C *182:72 0.000113224
38 *966:C *182:81 7.08306e-05
39 *966:C *182:85 0.000226146
40 *1030:A *182:85 5.33005e-05
41 *1038:A *1065:CLK 0.000532711
42 *1054:D *1054:CLK 0.000421914
43 *1054:RESET_B *1072:CLK 0.000210187
44 *1059:RESET_B *1070:CLK 0.000155155
45 *1063:RESET_B *1063:CLK 0.000346541
46 *1063:RESET_B *182:85 0.000227532
47 *1067:D *1067:CLK 0.000203317
48 *1071:D *1065:CLK 4.60232e-06
49 *1071:D *1071:CLK 9.18544e-05
50 *1071:D *182:17 1.25682e-05
51 *1071:D *182:28 6.56747e-05
52 *1076:RESET_B *1065:CLK 0.00105406
53 *28:18 *1070:CLK 0.000758768
54 *30:10 *1065:CLK 0.000285461
55 *44:10 *1071:CLK 0.00015945
56 *54:20 *1070:CLK 9.90819e-06
57 *71:12 *1065:CLK 6.64337e-05
58 *71:12 *182:28 5.5056e-05
59 *71:12 *182:72 0.000264532
60 *71:12 *182:81 9.62002e-05
61 *85:16 *1054:CLK 0
62 *86:43 *1054:CLK 0.000105874
63 *93:10 *1060:CLK 0.000126956
64 *102:45 *1054:CLK 0
65 *112:117 *182:32 0.000512913
66 *112:117 *182:36 3.67652e-05
67 *142:16 *182:85 0.000137983
68 *145:10 *1060:CLK 0
69 *151:26 *1065:CLK 0.000103646
70 *158:26 *1070:CLK 0
71 *167:18 *182:17 0.000147511
72 *167:18 *182:28 0.000337945
73 *167:18 *182:72 0.000312429
*RES
1 *1090:X *182:4 9.3 
2 *182:4 *1067:CLK 11.8 
3 *182:4 *182:17 6.44643 
4 *182:17 *1071:CLK 16.8 
5 *182:17 *182:28 4.67857 
6 *182:28 *182:32 9.55357 
7 *182:32 *182:34 4.5 
8 *182:34 *182:36 2.25 
9 *182:36 *1070:CLK 28.4964 
10 *182:36 *1072:CLK 20.0857 
11 *182:34 *1054:CLK 24.2821 
12 *182:32 *1084:CLK 9.3 
13 *182:28 *182:72 7.71429 
14 *182:72 *1083:CLK 13.8 
15 *182:72 *182:81 2.55357 
16 *182:81 *182:85 14.4821 
17 *182:85 *1060:CLK 28.1393 
18 *182:85 *1063:CLK 12.7107 
19 *182:81 *1065:CLK 26.0321 
*END

*D_NET *183 0.0383562
*CONN
*I *892:C I *D sky130_fd_sc_hd__nor3_2
*I *889:C I *D sky130_fd_sc_hd__and3_1
*I *1012:C I *D sky130_fd_sc_hd__or3_1
*I *899:A2 I *D sky130_fd_sc_hd__o21a_1
*I *896:A2 I *D sky130_fd_sc_hd__a21oi_1
*I *1015:A1 I *D sky130_fd_sc_hd__a21oi_1
*I *898:A2 I *D sky130_fd_sc_hd__a21oi_1
*I *1081:Q O *D sky130_fd_sc_hd__dfrtp_4
*CAP
1 *892:C 0.000100226
2 *889:C 2.28277e-05
3 *1012:C 0
4 *899:A2 0
5 *896:A2 4.73397e-05
6 *1015:A1 0.000622658
7 *898:A2 0.00024555
8 *1081:Q 0.000785275
9 *183:141 0.00172544
10 *183:128 0.00170261
11 *183:121 0.00109839
12 *183:81 0.000851568
13 *183:77 0.00200943
14 *183:61 0.00190284
15 *183:28 0.00192881
16 *183:24 0.00240609
17 *183:14 0.00258125
18 *889:C *214:16 7.99507e-05
19 *892:C *893:A 0.000603284
20 *898:A2 *214:98 0.000180495
21 *1015:A1 *903:C 0.000487381
22 *183:24 *893:A 0.000223885
23 *183:24 *953:B1 4.15526e-05
24 *183:24 *200:35 0.000112662
25 *183:28 *970:A 2.06112e-05
26 *183:61 *938:A 7.8379e-05
27 *183:61 *208:28 0.00109527
28 *183:77 *896:B1 0.000284518
29 *183:77 *928:A 3.41517e-06
30 *183:77 *184:66 8.93791e-05
31 *183:77 *196:18 1.06328e-05
32 *183:77 *206:18 0.000479532
33 *183:81 *208:93 0.000121083
34 *183:121 *932:B 0.000251114
35 *183:121 *941:A 0.00038958
36 *183:121 *187:47 8.359e-05
37 *183:121 *191:43 0.000545614
38 *183:121 *194:16 9.71197e-05
39 *183:121 *198:43 0.000170661
40 *183:121 *208:93 9.83442e-05
41 *183:141 *201:56 0.000909034
42 *183:141 *222:12 0
43 *906:D *1015:A1 0
44 *932:C *183:81 0
45 *933:A *183:14 7.40249e-05
46 *942:A *183:28 3.43988e-06
47 *942:B *183:24 3.06878e-06
48 *942:B *183:28 7.29646e-05
49 *959:B *1015:A1 0
50 *960:B *898:A2 3.83239e-06
51 *994:A1 *183:28 4.77446e-05
52 *994:B1 *183:24 3.05105e-05
53 *997:A *889:C 8.16554e-05
54 *1015:B1 *1015:A1 4.99283e-06
55 *1039:A *183:121 0.000221365
56 *1050:A *1015:A1 9.54798e-06
57 *1056:CLK *183:61 0.000146934
58 *1056:CLK *183:77 0.000165663
59 *1056:D *183:77 9.33565e-05
60 *1056:RESET_B *183:141 0.000100809
61 *1066:CLK *183:61 7.61348e-05
62 *1073:RESET_B *183:77 0.0005659
63 *1073:RESET_B *183:121 0.000512913
64 *1075:D *183:24 0.000737293
65 *1081:CLK *183:24 0.00036236
66 *1081:D *183:14 6.05161e-06
67 *1081:D *183:24 4.0342e-05
68 *1081:RESET_B *183:14 3.50468e-05
69 *1093:A *183:121 4.48128e-05
70 *20:129 *183:61 0.00076785
71 *35:10 *183:14 0
72 *37:10 *183:141 0.000719356
73 *46:10 *183:61 0.000161887
74 *46:10 *183:77 0.000189779
75 *52:10 *183:141 0.000416916
76 *53:22 *183:141 0.00048862
77 *63:14 *183:77 5.49995e-05
78 *79:14 *183:141 0.000177591
79 *85:42 *183:24 0.000292001
80 *87:32 *183:24 6.90348e-06
81 *87:44 *183:28 8.57949e-05
82 *93:40 *183:61 0.000749378
83 *93:126 *1015:A1 0.00108342
84 *93:126 *183:81 5.04347e-05
85 *103:52 *1015:A1 0
86 *103:52 *183:81 0.000184514
87 *112:30 *183:141 0.000735146
88 *118:30 *183:28 0.000205779
89 *120:14 *183:61 1.98839e-05
90 *122:18 *183:61 0.000129186
91 *124:12 *898:A2 7.58841e-05
92 *124:12 *183:28 0.000729248
93 *126:132 *892:C 0.000613195
94 *126:132 *183:24 0.000222244
95 *127:12 *183:77 0.000211358
96 *128:12 *183:141 0.000237093
97 *132:14 *898:A2 3.75959e-05
98 *132:14 *183:28 0.000248683
99 *137:31 *183:121 0.000549637
100 *141:18 *1015:A1 0.000252403
101 *144:18 *183:61 5.07531e-05
102 *146:72 *183:141 0.000168403
103 *162:28 *183:28 0
104 *162:54 *183:141 0
105 *168:26 *183:141 0.000135028
106 *175:63 *183:141 8.47008e-05
107 *179:10 *183:141 6.57032e-05
108 *181:100 *183:61 0.000226683
*RES
1 *1081:Q *183:14 28.6036 
2 *183:14 *183:24 34.9286 
3 *183:24 *183:28 17.375 
4 *183:28 *898:A2 17.7464 
5 *183:28 *183:61 46.1964 
6 *183:61 *183:77 24.7321 
7 *183:77 *183:81 8.72321 
8 *183:81 *1015:A1 29.1839 
9 *183:81 *896:A2 14.6125 
10 *183:77 *183:121 43.2321 
11 *183:121 *899:A2 9.3 
12 *183:61 *183:128 4.5 
13 *183:128 *1012:C 9.3 
14 *183:128 *183:141 48.8393 
15 *183:141 *889:C 14.6036 
16 *183:24 *892:C 15.175 
*END

*D_NET *184 0.0235593
*CONN
*I *1017:A1 I *D sky130_fd_sc_hd__a21oi_1
*I *896:B1 I *D sky130_fd_sc_hd__a21oi_1
*I *892:B I *D sky130_fd_sc_hd__nor3_2
*I *1014:A1 I *D sky130_fd_sc_hd__a21boi_1
*I *889:B I *D sky130_fd_sc_hd__and3_1
*I *1082:Q O *D sky130_fd_sc_hd__dfrtp_4
*CAP
1 *1017:A1 0
2 *896:B1 0.00076561
3 *892:B 0
4 *1014:A1 6.79888e-05
5 *889:B 9.13073e-05
6 *1082:Q 0.00038737
7 *184:88 0.00156529
8 *184:66 0.00384892
9 *184:33 0.0021829
10 *184:16 0.00081074
11 *184:10 0.000509908
12 *889:B *982:A3 0.000173397
13 *889:B *201:56 0.000149941
14 *889:B *222:12 0
15 *896:B1 *190:14 0.000179235
16 *896:B1 *190:20 0.000120348
17 *1014:A1 *215:40 0.000182605
18 *184:33 *982:A1 1.90936e-05
19 *184:66 *903:A 0.000383588
20 *184:66 *1010:A 0.000123504
21 *184:66 *195:73 0.000364091
22 *184:66 *196:18 0.000411178
23 *184:88 *892:A 5.77901e-05
24 *184:88 *186:18 4.76595e-05
25 *184:88 *196:89 0.000498505
26 *184:88 *197:64 0.000307964
27 *184:88 *199:41 4.8817e-05
28 *184:88 *208:28 0.000508325
29 *939:A1 *184:16 0.000171475
30 *939:A1 *184:33 0.00062849
31 *986:B *184:33 7.42893e-05
32 *986:B *184:66 0.000110391
33 *1014:A2 *184:33 2.30116e-06
34 *1014:A2 *184:66 8.09146e-06
35 *1016:A *184:10 0.000412377
36 *1017:A2 *184:10 0.000182187
37 *1028:A *184:10 1.55669e-05
38 *1028:A *184:16 5.7903e-06
39 *1062:RESET_B *184:10 0.000231485
40 *1062:RESET_B *184:16 2.18087e-05
41 *1067:RESET_B *184:88 9.34324e-05
42 *1068:D *184:16 6.63775e-05
43 *1073:RESET_B *896:B1 0.000136958
44 *1078:RESET_B *184:66 0.00015571
45 *1082:RESET_B *1014:A1 9.56348e-05
46 *1082:RESET_B *184:10 8.25613e-05
47 *20:50 *896:B1 8.64801e-05
48 *20:82 *896:B1 5.59687e-05
49 *27:26 *184:88 0.000947718
50 *76:14 *184:66 2.11419e-05
51 *78:30 *184:33 6.25005e-05
52 *87:69 *184:10 5.19522e-06
53 *101:18 *184:88 4.8817e-05
54 *106:14 *896:B1 0.000642642
55 *106:14 *184:66 6.48037e-05
56 *109:10 *184:33 0
57 *109:10 *184:66 0
58 *117:47 *184:88 2.41653e-05
59 *144:18 *184:88 0.000767262
60 *146:138 *184:88 0.000150394
61 *148:10 *184:66 2.04825e-05
62 *160:18 *184:66 0.000906873
63 *168:14 *184:66 0.000202925
64 *169:18 *184:88 0.00128314
65 *171:26 *184:88 0.000127807
66 *173:18 *184:33 2.71829e-05
67 *175:16 *184:16 0.00020054
68 *175:16 *184:33 0.00123833
69 *183:77 *896:B1 0.000284518
70 *183:77 *184:66 8.93791e-05
*RES
1 *1082:Q *184:10 24.4786 
2 *184:10 *184:16 4.23825 
3 *184:16 *889:B 19.6118 
4 *184:16 *184:33 8.78737 
5 *184:33 *1014:A1 15.9964 
6 *184:33 *184:66 44.5405 
7 *184:66 *184:88 49.5755 
8 *184:88 *892:B 9.3 
9 *184:66 *896:B1 32.8893 
10 *184:10 *1017:A1 13.8 
*END

*D_NET *185 0.0254779
*CONN
*I *894:A I *D sky130_fd_sc_hd__nor2_1
*I *890:A I *D sky130_fd_sc_hd__and2_1
*I *1010:B I *D sky130_fd_sc_hd__nor2_2
*I *1012:B I *D sky130_fd_sc_hd__or3_1
*I *893:A I *D sky130_fd_sc_hd__and2_1
*I *1083:Q O *D sky130_fd_sc_hd__dfrtp_4
*CAP
1 *894:A 0.00127575
2 *890:A 0
3 *1010:B 0.00131701
4 *1012:B 0.00053574
5 *893:A 0.000812775
6 *1083:Q 2.15003e-05
7 *185:43 0.00248801
8 *185:27 0.00165284
9 *185:19 0.00290498
10 *185:6 0.00144592
11 *893:A *199:60 6.26276e-05
12 *894:A *931:B1 3.97677e-05
13 *894:A *983:A 0
14 *894:A *199:60 0.00144306
15 *1010:B *1010:A 5.52302e-05
16 *1010:B *197:20 0.000909386
17 *1010:B *197:41 0.00020474
18 *1010:B *214:41 7.6644e-05
19 *1012:B *903:A 7.71875e-05
20 *1012:B *1010:A 8.44271e-06
21 *1012:B *1012:A 1.98839e-05
22 *1012:B *186:18 8.21321e-05
23 *1012:B *208:28 1.72189e-05
24 *185:6 *199:60 1.00733e-05
25 *185:19 *199:60 0.000426192
26 *185:27 *941:A 0.000346932
27 *185:27 *189:33 0
28 *185:27 *189:61 4.11173e-05
29 *185:27 *192:61 0.000177821
30 *185:27 *203:98 8.44271e-06
31 *185:43 *940:A 5.33005e-05
32 *185:43 *941:A 5.33005e-05
33 *185:43 *203:24 0
34 *185:43 *203:48 0
35 *890:B *185:43 1.02504e-05
36 *892:C *893:A 0.000603284
37 *942:B *893:A 0.000264327
38 *966:C *185:27 0.0011995
39 *970:C *185:27 0.00179473
40 *1056:RESET_B *1012:B 8.37905e-05
41 *1059:RESET_B *185:43 0.000144553
42 *1063:D *894:A 8.08022e-05
43 *1078:CLK *1010:B 0.000727443
44 *1089:A *185:43 0.000436941
45 *20:104 *185:43 9.67754e-05
46 *79:14 *1012:B 0.000221822
47 *96:12 *185:27 8.33099e-05
48 *96:12 *185:43 2.59355e-05
49 *103:38 *185:43 3.23712e-05
50 *103:52 *185:43 9.61175e-05
51 *122:18 *1012:B 9.15842e-06
52 *126:132 *893:A 0.000619997
53 *126:132 *185:27 1.3807e-05
54 *159:22 *1012:B 9.85599e-06
55 *159:22 *185:43 0.000975557
56 *167:18 *185:27 0.000354811
57 *169:18 *1010:B 0.00052948
58 *173:12 *1010:B 0.000271345
59 *183:24 *893:A 0.000223885
*RES
1 *1083:Q *185:6 9.72857 
2 *185:6 *893:A 25.4607 
3 *185:6 *185:19 8.35714 
4 *185:19 *185:27 38.6429 
5 *185:27 *185:43 25.0714 
6 *185:43 *1012:B 25.7821 
7 *185:43 *1010:B 49.675 
8 *185:27 *890:A 9.3 
9 *185:19 *894:A 35.4786 
*END

*D_NET *186 0.0156285
*CONN
*I *892:A I *D sky130_fd_sc_hd__nor3_2
*I *891:A I *D sky130_fd_sc_hd__xor2_1
*I *1010:A I *D sky130_fd_sc_hd__nor2_2
*I *1012:A I *D sky130_fd_sc_hd__or3_1
*I *1084:Q O *D sky130_fd_sc_hd__dfrtp_4
*CAP
1 *892:A 8.80872e-05
2 *891:A 0.000535921
3 *1010:A 0.00133212
4 *1012:A 8.0417e-05
5 *1084:Q 1.58792e-05
6 *186:40 0.000879842
7 *186:18 0.00244583
8 *186:8 0.00130501
9 *891:A *912:B1_N 1.58163e-05
10 *891:A *970:A 0.000768464
11 *891:A *188:102 2.59208e-05
12 *1010:A *903:A 0
13 *1010:A *903:B 1.8038e-05
14 *1010:A *903:D 0.000177467
15 *1010:A *195:89 4.355e-05
16 *1010:A *197:20 3.18676e-05
17 *1010:A *208:28 0.000328321
18 *186:18 *940:A 0.000127557
19 *186:18 *192:86 1.04777e-05
20 *186:18 *197:41 0.0002034
21 *186:18 *212:37 2.93957e-05
22 *186:40 *192:86 3.35264e-05
23 *942:A *891:A 0.000523049
24 *953:A2 *891:A 5.20751e-05
25 *972:A1 *186:18 0.000140865
26 *972:A2 *186:18 0.000334111
27 *972:B1 *186:18 2.15258e-05
28 *972:B1 *186:40 2.73754e-05
29 *1006:C *1010:A 0.00120497
30 *1010:B *1010:A 5.52302e-05
31 *1012:B *1010:A 8.44271e-06
32 *1012:B *1012:A 1.98839e-05
33 *1012:B *186:18 8.21321e-05
34 *1056:RESET_B *1010:A 0.00012013
35 *1056:RESET_B *1012:A 0.00030868
36 *1079:RESET_B *1010:A 0.000142751
37 *1084:D *186:8 2.06747e-05
38 *20:22 *1010:A 0.000421525
39 *20:152 *186:8 5.49544e-05
40 *20:152 *186:18 0.000312757
41 *27:26 *892:A 3.1412e-05
42 *27:26 *186:40 0.000339468
43 *30:10 *186:40 0
44 *79:14 *1012:A 4.4873e-05
45 *83:28 *891:A 0.000180079
46 *86:43 *892:A 0.000162042
47 *86:43 *186:40 0.000153066
48 *103:14 *891:A 1.11476e-05
49 *103:113 *1010:A 1.03403e-05
50 *146:138 *186:18 0.000380519
51 *154:26 *891:A 0.000191843
52 *159:22 *1012:A 0.000266938
53 *159:22 *186:18 0.000175892
54 *162:8 *891:A 1.98839e-05
55 *169:18 *1010:A 2.77933e-05
56 *169:18 *186:18 0.00105619
57 *184:66 *1010:A 0.000123504
58 *184:88 *892:A 5.77901e-05
59 *184:88 *186:18 4.76595e-05
*RES
1 *1084:Q *186:8 14.3357 
2 *186:8 *186:18 31.3393 
3 *186:18 *1012:A 12.7107 
4 *186:18 *1010:A 48.1036 
5 *186:8 *186:40 5.58929 
6 *186:40 *891:A 27.8 
7 *186:40 *892:A 16.05 
*END

*D_NET *187 0.0315741
*CONN
*I *902:D I *D sky130_fd_sc_hd__and4_4
*I *915:B I *D sky130_fd_sc_hd__nand2_1
*I *914:A I *D sky130_fd_sc_hd__nor2_1
*I *920:A2 I *D sky130_fd_sc_hd__a21o_1
*I *923:A3 I *D sky130_fd_sc_hd__a31o_1
*I *919:C I *D sky130_fd_sc_hd__nand3_1
*I *916:B I *D sky130_fd_sc_hd__or2_1
*I *1054:Q O *D sky130_fd_sc_hd__dfrtp_4
*CAP
1 *902:D 0.000274067
2 *915:B 0.000101778
3 *914:A 3.92501e-05
4 *920:A2 0.000221431
5 *923:A3 8.69336e-05
6 *919:C 0.000538922
7 *916:B 0.00057087
8 *1054:Q 0
9 *187:79 0.000603798
10 *187:55 0.000796655
11 *187:49 0.000592216
12 *187:47 0.00104448
13 *187:45 0.00332939
14 *187:22 0.00181431
15 *187:4 0.00343436
16 *902:D *902:B 7.66623e-05
17 *902:D *902:C 0.000575511
18 *902:D *910:B 0
19 *902:D *195:12 4.58264e-05
20 *915:B *915:A 0.000224583
21 *919:C *919:A 0.00123395
22 *919:C *206:20 3.14003e-05
23 *919:C *206:22 0.000222616
24 *919:C *207:18 0.00010026
25 *919:C *207:45 4.37014e-05
26 *920:A2 *213:12 2.71138e-05
27 *923:A3 *923:A1 0.000377176
28 *923:A3 *198:62 0.000392217
29 *187:22 *911:C1 0.000515014
30 *187:22 *1004:A1 2.06112e-05
31 *187:22 *198:33 0.000219554
32 *187:22 *202:24 5.33005e-05
33 *187:22 *205:30 0
34 *187:45 *966:A 0.00115868
35 *187:45 *202:24 0.000168187
36 *187:47 *902:B 0.000239208
37 *187:47 *902:C 0.000182301
38 *187:47 *195:12 8.45781e-05
39 *187:47 *198:43 5.9548e-05
40 *187:47 *198:45 4.60232e-06
41 *187:49 *198:45 4.82403e-05
42 *187:55 *919:B 2.30116e-06
43 *187:55 *923:A1 5.33005e-05
44 *187:55 *198:45 5.68045e-05
45 *187:55 *198:62 0.000135028
46 seg[0] *920:A2 9.60337e-06
47 *936:B *187:45 0.000109808
48 *948:A *916:B 9.90431e-05
49 *1002:A *919:C 0.0010363
50 *1008:B2 *187:55 9.54798e-06
51 *1011:A *187:47 6.69871e-05
52 *1033:A *187:45 6.42095e-05
53 *1054:CLK *187:45 0.000488389
54 *1054:D *187:45 0.000192536
55 *1055:CLK *187:22 0.000469608
56 *1060:CLK *902:D 1.20379e-05
57 *1063:RESET_B *902:D 5.52302e-05
58 *1080:CLK *915:B 0.000351476
59 *20:104 *187:79 0.00105801
60 *21:16 *187:79 5.66971e-05
61 *25:12 *187:22 0.000735038
62 *36:26 *187:22 0.000176964
63 *44:10 *187:47 0.000288749
64 *50:28 *187:22 0.000118308
65 *61:22 *187:45 9.41642e-05
66 *74:14 *920:A2 0.00015598
67 *91:27 *187:55 2.06112e-05
68 *93:50 *916:B 0.000726751
69 *93:50 *187:22 5.05867e-05
70 *93:68 *916:B 0.000430856
71 *99:18 *916:B 0.000469765
72 *101:18 *902:D 0.000197084
73 *102:51 *920:A2 0.000502462
74 *118:30 *187:22 3.55471e-05
75 *143:8 *916:B 5.74499e-06
76 *146:12 *187:47 0.00033921
77 *155:18 *916:B 0.000136676
78 *159:10 *187:79 0.000770109
79 *162:28 *187:22 0.000371405
80 *165:33 *187:47 7.85979e-05
81 *166:8 *187:47 0.000754347
82 *166:8 *187:49 0.000168322
83 *166:8 *187:55 0.000211221
84 *167:43 *919:C 7.99401e-05
85 *175:80 *187:22 0.000681601
86 *177:80 *920:A2 1.01912e-05
87 *183:121 *187:47 8.359e-05
*RES
1 *1054:Q *187:4 9.3 
2 *187:4 *187:22 48.1964 
3 *187:22 *916:B 22.9786 
4 *187:4 *187:45 38.7321 
5 *187:45 *187:47 23.8036 
6 *187:47 *187:49 2.25 
7 *187:49 *187:55 8.71429 
8 *187:55 *919:C 37.55 
9 *187:55 *923:A3 13.1214 
10 *187:49 *187:79 15.625 
11 *187:79 *920:A2 25.4071 
12 *187:79 *914:A 9.83571 
13 *187:47 *915:B 17.2107 
14 *187:45 *902:D 21.7464 
*END

*D_NET *188 0.0295742
*CONN
*I *970:A I *D sky130_fd_sc_hd__and4_1
*I *953:A1 I *D sky130_fd_sc_hd__a21o_1
*I *949:A I *D sky130_fd_sc_hd__or2_1
*I *906:A I *D sky130_fd_sc_hd__or4_1
*I *950:A I *D sky130_fd_sc_hd__nand2_1
*I *954:A I *D sky130_fd_sc_hd__and3_2
*I *1064:Q O *D sky130_fd_sc_hd__dfrtp_4
*CAP
1 *970:A 0.00130684
2 *953:A1 0
3 *949:A 2.13071e-05
4 *906:A 8.46947e-05
5 *950:A 0.000288609
6 *954:A 0.00033393
7 *1064:Q 0
8 *188:102 0.00174435
9 *188:71 0.00111219
10 *188:63 0.00129645
11 *188:28 0.00101329
12 *188:24 0.00205063
13 *188:14 0.00237882
14 *188:6 0.000908808
15 *906:A *965:A1 0.000204674
16 *949:A *979:A 0.000173743
17 *950:A *219:16 0.00118489
18 *954:A *982:A1 0.000118045
19 *954:A *982:B1 0.000142152
20 *970:A *934:A 0.000280571
21 *970:A *953:B1 8.99595e-05
22 *970:A *200:35 0.000274812
23 *188:14 *205:30 7.79224e-05
24 *188:24 *193:30 0.000231959
25 *188:24 *204:22 0.000109373
26 *188:24 *215:32 0.000475443
27 *188:63 *979:A 0.00102616
28 *188:63 *982:A1 0.00022197
29 *188:71 *965:A1 0.000524311
30 *188:71 *189:71 8.06083e-05
31 *188:71 *193:16 9.80904e-05
32 *188:102 *912:B1_N 9.41642e-05
33 *891:A *970:A 0.000768464
34 *891:A *188:102 2.59208e-05
35 *912:A1 *188:24 0.00051536
36 *939:A2 *188:63 8.91268e-05
37 *939:A2 *188:71 0.000164764
38 *939:C1 *188:63 0.00010133
39 *950:B *950:A 0.00118489
40 *953:A2 *188:102 5.25759e-05
41 *954:C *954:A 0
42 *957:A *906:A 0.000212705
43 *957:A *188:71 0.000705348
44 *960:B *188:14 0.000312767
45 *986:B *188:24 6.20076e-05
46 *994:B1 *970:A 7.21803e-05
47 *997:A *188:28 0.000160778
48 *997:A *188:63 8.61499e-05
49 *1016:A *188:24 8.92995e-05
50 *1061:CLK *188:24 0
51 *1069:RESET_B *949:A 0.000143505
52 *1069:RESET_B *188:71 0.000476022
53 *1074:D *188:24 0.000293546
54 *1074:RESET_B *188:63 9.47964e-05
55 *45:8 *188:63 5.66971e-05
56 *47:18 *188:24 0
57 *51:20 *188:14 0
58 *51:20 *188:24 0.000299564
59 *51:20 *188:102 0
60 *83:28 *188:102 0.000186304
61 *87:44 *970:A 1.90936e-05
62 *91:27 *188:24 0.000133935
63 *103:24 *188:14 0.000327379
64 *103:24 *188:102 0.000339634
65 *109:10 *188:63 0.000158532
66 *118:30 *970:A 1.21384e-05
67 *126:47 *954:A 0
68 *126:47 *188:63 0.00121237
69 *126:132 *970:A 0.00024516
70 *133:60 *188:24 0.000860866
71 *148:35 *188:24 0
72 *149:16 *188:14 3.47641e-06
73 *154:18 *970:A 5.52302e-05
74 *154:26 *970:A 0.000693415
75 *162:28 *970:A 5.54204e-05
76 *173:60 *188:63 1.63801e-05
77 *173:60 *188:71 0.000120895
78 *176:61 *188:24 0.00119684
79 *183:28 *970:A 2.06112e-05
*RES
1 *1064:Q *188:6 13.8 
2 *188:6 *188:14 19.1071 
3 *188:14 *188:24 45.9821 
4 *188:24 *188:28 7.5 
5 *188:28 *954:A 23.5857 
6 *188:28 *188:63 28.4286 
7 *188:63 *188:71 24.3393 
8 *188:71 *950:A 25.425 
9 *188:71 *906:A 16.6571 
10 *188:63 *949:A 11.0679 
11 *188:6 *188:102 12.1786 
12 *188:102 *953:A1 9.3 
13 *188:102 *970:A 46.028 
*END

*D_NET *189 0.0248431
*CONN
*I *970:B I *D sky130_fd_sc_hd__and4_1
*I *906:B I *D sky130_fd_sc_hd__or4_1
*I *954:B I *D sky130_fd_sc_hd__and3_2
*I *953:B1 I *D sky130_fd_sc_hd__a21o_1
*I *1065:Q O *D sky130_fd_sc_hd__dfrtp_2
*CAP
1 *970:B 0
2 *906:B 0
3 *954:B 0.00183516
4 *953:B1 0.00035238
5 *1065:Q 0.000287522
6 *189:71 0.00304209
7 *189:63 0.00158825
8 *189:61 0.00226105
9 *189:33 0.00288219
10 *189:10 0.00164236
11 *953:B1 *201:34 4.65519e-05
12 *954:B *982:A1 2.12005e-05
13 *954:B *982:B1 0.000407583
14 *954:B *197:20 6.2155e-06
15 *189:10 *901:A1 1.26634e-05
16 *189:10 *197:81 0
17 *189:33 *910:C 0.00115349
18 *189:33 *931:A1 1.54393e-05
19 *189:33 *195:22 0.000640235
20 *189:33 *195:28 3.91734e-05
21 *189:61 *191:43 2.44546e-05
22 *189:61 *191:69 6.26944e-05
23 *189:61 *192:61 0.00043974
24 *189:61 *203:98 0
25 *189:61 *205:12 6.90381e-06
26 *189:61 *205:30 4.74602e-05
27 *189:63 *906:C 1.0946e-05
28 *189:63 *932:B 0.000417836
29 *189:63 *965:A1 0.00010041
30 *189:71 *965:A1 0.00065793
31 *189:71 *965:A2 0.000109245
32 *189:71 *192:18 0
33 *890:B *189:61 2.04825e-05
34 *893:B *953:B1 0.000751417
35 *893:B *189:10 4.19624e-06
36 *893:B *189:33 0.000134053
37 *906:D *189:61 1.06841e-05
38 *906:D *189:63 0.000740086
39 *917:A *189:61 0.000289714
40 *917:A *189:63 1.19432e-05
41 *957:A *189:63 7.30435e-05
42 *959:B *189:63 1.07319e-05
43 *959:B *189:71 0.000110022
44 *960:C *189:61 0
45 *966:C *189:33 0
46 *970:A *953:B1 8.99595e-05
47 *970:C *189:61 1.721e-05
48 *986:B *954:B 0.000141729
49 *990:A *189:61 6.46173e-05
50 *994:A2 *189:10 0
51 *994:B1 *953:B1 2.12775e-05
52 *1054:CLK *189:61 0.000185384
53 *1059:RESET_B *189:61 0.00015343
54 *1068:CLK *189:71 0
55 *1070:CLK *189:61 0.00108023
56 *20:175 *953:B1 0.000659896
57 *20:175 *189:33 0.00020259
58 *27:26 *189:71 6.27272e-06
59 *28:18 *189:61 0.000141376
60 *54:20 *189:61 0.000202488
61 *80:14 *189:61 0.000126478
62 *84:39 *189:61 0.000118763
63 *85:16 *189:33 0
64 *85:16 *189:61 0
65 *86:43 *189:61 3.22265e-05
66 *87:32 *953:B1 1.90096e-05
67 *93:108 *189:61 0
68 *93:126 *189:71 0
69 *103:38 *189:61 0
70 *118:30 *953:B1 7.34049e-05
71 *126:47 *954:B 0.000101601
72 *126:97 *189:61 0
73 *126:132 *189:33 0
74 *133:34 *189:71 8.59283e-05
75 *155:78 *189:61 9.12375e-05
76 *167:18 *189:61 0.000149996
77 *173:12 *954:B 0.000484518
78 *182:36 *189:61 0.000162621
79 *183:24 *953:B1 4.15526e-05
80 *185:27 *189:33 0
81 *185:27 *189:61 4.11173e-05
82 *188:71 *189:71 8.06083e-05
*RES
1 *1065:Q *189:10 21.1296 
2 *189:10 *953:B1 21.419 
3 *189:10 *189:33 10.112 
4 *189:33 *189:61 49.8645 
5 *189:61 *189:63 10.9018 
6 *189:63 *189:71 26.6875 
7 *189:71 *954:B 33.4518 
8 *189:63 *906:B 13.8 
9 *189:33 *970:B 13.8 
*END

*D_NET *190 0.0152332
*CONN
*I *905:C I *D sky130_fd_sc_hd__and4_1
*I *958:A I *D sky130_fd_sc_hd__nor2_1
*I *959:A I *D sky130_fd_sc_hd__and2_1
*I *965:A1 I *D sky130_fd_sc_hd__a31o_1
*I *1066:Q O *D sky130_fd_sc_hd__dfrtp_1
*CAP
1 *905:C 0.000125653
2 *958:A 0
3 *959:A 8.84545e-05
4 *965:A1 0.000359957
5 *1066:Q 0.000105771
6 *190:52 0.00280011
7 *190:20 0.0011133
8 *190:14 0.00383043
9 *190:8 0.000596861
10 *905:C *905:D 5.1588e-05
11 *905:C *193:22 5.33005e-05
12 *965:A1 *965:B1 5.50052e-05
13 *965:A1 *218:16 1.47872e-05
14 *965:A1 *220:37 4.82865e-05
15 *190:14 *220:10 9.15842e-06
16 *190:20 *906:C 4.96113e-05
17 *190:20 *220:10 0.000451313
18 *190:52 *208:8 8.25843e-06
19 *190:52 *214:16 0.000201095
20 *190:52 *214:41 0.000303252
21 *896:B1 *190:14 0.000179235
22 *896:B1 *190:20 0.000120348
23 *906:A *965:A1 0.000204674
24 *952:A *190:52 0.000115958
25 *957:A *965:A1 9.21418e-06
26 *959:B *959:A 0.000196156
27 *959:B *190:20 0.000175892
28 *1003:A *190:52 3.13297e-05
29 *1013:A *190:52 0.000397494
30 *1053:CLK *190:52 9.89626e-05
31 *1069:RESET_B *190:14 3.03899e-05
32 *1073:RESET_B *190:14 8.87219e-05
33 *1078:RESET_B *190:52 0.000128608
34 *1084:RESET_B *905:C 0.000231975
35 *1084:RESET_B *190:14 0.000100248
36 *20:50 *190:20 9.71008e-05
37 *20:58 *190:52 9.25647e-05
38 *20:82 *190:14 2.47108e-05
39 *20:129 *190:14 2.3524e-05
40 *35:10 *190:52 5.19522e-06
41 *67:16 *905:C 2.59355e-05
42 *97:8 *959:A 3.63775e-05
43 *97:8 *190:20 0.000327159
44 *137:8 *959:A 2.51343e-06
45 *177:12 *190:20 0.000560905
46 *178:14 *905:C 0.000142102
47 *178:14 *190:14 0.000164766
48 *181:100 *190:8 7.22574e-05
49 *188:71 *965:A1 0.000524311
50 *189:63 *965:A1 0.00010041
51 *189:71 *965:A1 0.00065793
*RES
1 *1066:Q *190:8 15.1571 
2 *190:8 *190:14 8.07143 
3 *190:14 *190:20 21.0893 
4 *190:20 *965:A1 29.3893 
5 *190:20 *959:A 11.4964 
6 *190:14 *190:52 47.7143 
7 *190:52 *958:A 9.3 
8 *190:8 *905:C 17.4964 
*END

*D_NET *191 0.0317058
*CONN
*I *966:B I *D sky130_fd_sc_hd__nand3_1
*I *907:B I *D sky130_fd_sc_hd__and4b_1
*I *905:D I *D sky130_fd_sc_hd__and4_1
*I *965:A2 I *D sky130_fd_sc_hd__a31o_1
*I *961:A I *D sky130_fd_sc_hd__or2_1
*I *962:A I *D sky130_fd_sc_hd__nand2_1
*I *1067:Q O *D sky130_fd_sc_hd__dfrtp_4
*CAP
1 *966:B 0.000585749
2 *907:B 5.90142e-05
3 *905:D 0.000233318
4 *965:A2 0.000123045
5 *961:A 0.00171288
6 *962:A 6.89781e-05
7 *1067:Q 0.000663557
8 *191:90 0.00137456
9 *191:69 0.00187831
10 *191:43 0.00299141
11 *191:33 0.00162427
12 *191:22 0.000724219
13 *191:8 0.00176521
14 *905:D *193:22 5.33005e-05
15 *905:D *203:48 0.000312431
16 *907:B *907:A_N 2.12087e-05
17 *961:A *203:24 0.000154357
18 *191:22 *209:66 0.000163952
19 *191:22 *214:72 0.000204411
20 *191:33 *214:72 0.000402297
21 *191:43 *192:43 0.000257484
22 *191:43 *214:72 0.000307728
23 *191:69 *194:29 0.00114294
24 *191:90 *203:48 0.000213455
25 *191:90 *204:22 0.000168722
26 *905:C *905:D 5.1588e-05
27 *912:A1 *191:90 0.00066871
28 *917:A *191:43 0.000421065
29 *924:C *962:A 0.000262223
30 *924:C *191:22 0.000124521
31 *930:A *966:B 0.000323849
32 *948:A *191:90 0.000310671
33 *957:A *191:43 0.00105583
34 *959:B *965:A2 0.000231761
35 *966:C *966:B 5.33005e-05
36 *967:A *191:90 0.000467759
37 *990:A *191:43 6.30931e-05
38 *1053:RESET_B *191:90 1.41295e-05
39 *1067:CLK *191:22 5.03772e-05
40 *1067:D *191:22 4.27011e-05
41 *1077:CLK *907:B 5.49489e-05
42 *1077:RESET_B *907:B 0.000224161
43 *1078:D *961:A 6.63007e-05
44 *1084:RESET_B *905:D 1.36991e-05
45 *1090:A *905:D 0.000169597
46 *1090:A *191:90 0.000204919
47 *51:20 *191:90 0.00018566
48 *55:12 *966:B 3.07351e-06
49 *124:12 *191:69 0.000180495
50 *133:34 *965:A2 9.54798e-06
51 *137:20 *191:43 7.83659e-05
52 *137:31 *962:A 8.27532e-05
53 *137:31 *191:22 0.000123728
54 *137:31 *191:43 0.000754724
55 *137:33 *962:A 0.00017947
56 *138:14 *961:A 0.000520499
57 *138:14 *191:43 0.000249645
58 *140:28 *191:90 4.53841e-05
59 *142:16 *966:B 0.00121134
60 *143:8 *191:90 0.0011033
61 *155:78 *191:69 0.000361617
62 *162:28 *191:90 6.09658e-05
63 *165:12 *907:B 4.51495e-05
64 *165:12 *191:90 0.000861564
65 *165:33 *191:22 1.98839e-05
66 *166:59 *961:A 0.000976059
67 *167:18 *191:33 0.000393047
68 *167:18 *191:43 0.000459612
69 *176:141 *966:B 0.000527297
70 *178:14 *905:D 0.000232163
71 *180:43 *191:90 2.2927e-05
72 *180:45 *191:90 1.54726e-05
73 *181:20 *191:43 4.11224e-05
74 *182:85 *966:B 0.000136958
75 *183:121 *191:43 0.000545614
76 *189:61 *191:43 2.44546e-05
77 *189:61 *191:69 6.26944e-05
78 *189:71 *965:A2 0.000109245
*RES
1 *1067:Q *191:8 16.425 
2 *191:8 *191:22 17.8929 
3 *191:22 *962:A 11.8893 
4 *191:22 *191:33 9.78571 
5 *191:33 *191:43 35.8036 
6 *191:43 *961:A 31.8179 
7 *191:43 *965:A2 21.4607 
8 *191:33 *191:69 20.2143 
9 *191:69 *905:D 19.6214 
10 *191:69 *191:90 47.9286 
11 *191:90 *907:B 15.9786 
12 *191:8 *966:B 35.8714 
*END

*D_NET *192 0.0325163
*CONN
*I *966:A I *D sky130_fd_sc_hd__nand3_1
*I *907:C I *D sky130_fd_sc_hd__and4b_1
*I *905:B I *D sky130_fd_sc_hd__and4_1
*I *965:B1 I *D sky130_fd_sc_hd__a31o_1
*I *1068:Q O *D sky130_fd_sc_hd__dfrtp_2
*CAP
1 *966:A 0.00103905
2 *907:C 0.00134384
3 *905:B 0.000147077
4 *965:B1 7.81107e-05
5 *1068:Q 0.00173953
6 *192:86 0.00314816
7 *192:61 0.00216224
8 *192:43 0.00236771
9 *192:18 0.00293547
10 *905:B *193:22 2.14658e-05
11 *907:C *907:A_N 0.00108207
12 *907:C *197:41 0.000227639
13 *907:C *205:30 3.51958e-05
14 *965:B1 *218:16 0.000113426
15 *965:B1 *220:37 5.40148e-05
16 *192:43 *214:62 0.000429044
17 *192:86 *197:41 0.000326023
18 *192:86 *214:98 6.48083e-05
19 *906:D *192:61 0.0004398
20 *909:A2 *905:B 1.21436e-05
21 *930:A *966:A 0.000263435
22 *936:C *192:43 0.000500741
23 *939:A2 *192:18 0.000139337
24 *950:B *192:43 0.000175892
25 *957:A *192:18 7.49214e-05
26 *957:A *192:43 0.000116412
27 *965:A1 *965:B1 5.50052e-05
28 *970:C *192:61 9.25014e-06
29 *981:C1 *966:A 0
30 *1030:A *966:A 2.83284e-06
31 *1033:A *966:A 0.000126572
32 *1054:CLK *966:A 0.000311121
33 *1054:D *966:A 0.000278008
34 *1059:RESET_B *192:61 0
35 *1068:CLK *192:18 5.51716e-05
36 *1068:D *192:18 7.58841e-05
37 *1068:RESET_B *192:18 0.000264592
38 *1071:RESET_B *966:A 0.000437003
39 *1073:RESET_B *192:43 6.13757e-06
40 *1077:D *907:C 3.18174e-05
41 *1077:RESET_B *907:C 0.000807314
42 *1090:A *905:B 3.58934e-05
43 *1090:A *192:86 0.000304821
44 *1093:A *192:43 0.000298483
45 *20:152 *192:86 6.73707e-06
46 *23:24 *966:A 0.000369936
47 *27:26 *192:18 1.01912e-05
48 *28:18 *192:61 0.000220935
49 *30:10 *192:86 0.000115882
50 *67:16 *905:B 0.000311327
51 *67:16 *192:86 0.00106164
52 *83:28 *907:C 1.90936e-05
53 *85:16 *966:A 4.00349e-05
54 *95:63 *905:B 0.000178519
55 *96:12 *192:61 0.000136478
56 *101:18 *907:C 8.76591e-06
57 *101:18 *966:A 9.96606e-05
58 *102:45 *907:C 0.00133761
59 *102:45 *966:A 0.000554388
60 *108:16 *192:18 2.09722e-05
61 *114:20 *192:61 0.000275745
62 *119:6 *192:18 0.00132761
63 *119:41 *192:43 0.000551974
64 *120:14 *192:86 9.41642e-05
65 *135:16 *905:B 1.18064e-05
66 *140:28 *192:43 8.68244e-05
67 *160:18 *192:43 0.000220984
68 *176:118 *192:61 0.000279318
69 *176:135 *966:A 0.000221219
70 *178:14 *905:B 2.04558e-05
71 *181:18 *192:43 3.38855e-05
72 *181:20 *192:18 0.000177682
73 *181:20 *192:43 0.000507318
74 *185:27 *192:61 0.000177821
75 *186:18 *192:86 1.04777e-05
76 *186:40 *192:86 3.35264e-05
77 *187:45 *966:A 0.00115868
78 *189:61 *192:61 0.00043974
79 *189:71 *192:18 0
80 *191:43 *192:43 0.000257484
*RES
1 *1068:Q *192:18 48.1929 
2 *192:18 *965:B1 15.9786 
3 *192:18 *192:43 44.1786 
4 *192:43 *192:61 39.4286 
5 *192:61 *905:B 18.3357 
6 *192:61 *192:86 31.3654 
7 *192:86 *907:C 30.0357 
8 *192:86 *966:A 49.4171 
*END

*D_NET *193 0.0157327
*CONN
*I *905:A I *D sky130_fd_sc_hd__and4_1
*I *969:A I *D sky130_fd_sc_hd__inv_2
*I *907:D I *D sky130_fd_sc_hd__and4b_1
*I *1069:Q O *D sky130_fd_sc_hd__dfrtp_1
*CAP
1 *905:A 0
2 *969:A 0
3 *907:D 0.000841414
4 *1069:Q 0.00141968
5 *193:30 0.00153771
6 *193:22 0.000972745
7 *193:16 0.00169613
8 *907:D *203:60 4.15526e-05
9 *907:D *215:18 0.00145761
10 *193:16 *1009:A1 8.49861e-06
11 *193:16 *203:24 0.00144717
12 *193:16 *204:43 0
13 *193:30 *212:37 0.0017681
14 *905:B *193:22 2.14658e-05
15 *905:C *193:22 5.33005e-05
16 *905:D *193:22 5.33005e-05
17 *909:A2 *193:30 0.000325244
18 *912:A1 *193:30 0.000233607
19 *949:B *193:16 1.90936e-05
20 *967:B *193:16 0.000617592
21 *1064:RESET_B *907:D 5.8276e-05
22 *1069:RESET_B *193:16 4.40966e-05
23 *1077:RESET_B *907:D 1.14548e-05
24 *48:20 *907:D 0
25 *67:16 *193:22 2.63062e-05
26 *84:29 *907:D 6.57032e-05
27 *93:126 *193:16 0
28 *95:63 *193:22 5.71472e-05
29 *95:63 *193:30 5.52302e-05
30 *96:12 *193:22 0.000135028
31 *129:26 *193:16 2.11068e-05
32 *134:18 *907:D 0.000915107
33 *138:14 *193:16 9.87935e-06
34 *158:26 *193:16 0.00026264
35 *165:12 *907:D 1.14548e-05
36 *173:60 *193:16 0.000140587
37 *175:153 *193:16 8.79668e-05
38 *176:71 *193:30 6.94952e-05
39 *176:82 *193:30 0.000336517
40 *176:89 *193:30 0.000327789
41 *176:118 *193:30 0.000252652
42 *177:12 *193:16 0
43 *188:24 *193:30 0.000231959
44 *188:71 *193:16 9.80904e-05
*RES
1 *1069:Q *193:16 48.4786 
2 *193:16 *193:22 4.375 
3 *193:22 *193:30 31.1786 
4 *193:30 *907:D 41.608 
5 *193:30 *969:A 9.3 
6 *193:22 *905:A 9.3 
*END

*D_NET *194 0.0349572
*CONN
*I *908:B I *D sky130_fd_sc_hd__and4b_1
*I *973:A I *D sky130_fd_sc_hd__or2_1
*I *980:B I *D sky130_fd_sc_hd__and3_1
*I *974:A I *D sky130_fd_sc_hd__nand2_2
*I *982:A3 I *D sky130_fd_sc_hd__a41o_1
*I *983:D I *D sky130_fd_sc_hd__and4_1
*I *1070:Q O *D sky130_fd_sc_hd__dfrtp_4
*CAP
1 *908:B 0.00027962
2 *973:A 0
3 *980:B 0.000793653
4 *974:A 9.17118e-05
5 *982:A3 0.000693625
6 *983:D 0
7 *1070:Q 0
8 *194:61 0.00101066
9 *194:57 0.00137987
10 *194:49 0.00145985
11 *194:31 0.00137857
12 *194:29 0.00416471
13 *194:27 0.00423806
14 *194:16 0.00100176
15 *194:4 0.00107511
16 *908:B *908:A_N 0.000393271
17 *908:B *944:B1 9.11365e-06
18 *908:B *196:62 0.000298868
19 *908:B *200:20 0.000421491
20 *980:B *195:73 3.15517e-05
21 *980:B *201:56 0.000771163
22 *982:A3 *201:56 3.36815e-05
23 *982:A3 *222:12 0
24 *194:16 *899:A1 0.00022459
25 *194:16 *983:B 0.000261799
26 *194:16 *207:45 0.00112881
27 *194:49 *200:20 0.000390591
28 *194:49 *212:25 0.000904602
29 *194:57 *204:22 0.000280784
30 *194:57 *214:16 0.000131204
31 *194:61 *204:22 0.000433918
32 *194:61 *214:16 0.000207108
33 *889:B *982:A3 0.000173397
34 *894:B *194:16 0.00173408
35 *899:B1 *194:16 0.000276203
36 *944:A3 *908:B 0.000223599
37 *944:A3 *194:49 0.000387162
38 *971:A *194:16 5.38242e-05
39 *974:B *974:A 0.00010171
40 *974:B *982:A3 0.000229595
41 *975:A *980:B 7.70035e-05
42 *975:B *194:57 0.000108379
43 *982:A4 *982:A3 0.000421594
44 *984:B *908:B 9.25014e-06
45 *991:A *982:A3 1.02504e-05
46 *1005:A *194:49 0.000237525
47 *1061:CLK *194:29 0.000143375
48 *1074:D *982:A3 8.56752e-05
49 *1078:D *974:A 0.00029701
50 *1078:D *982:A3 0.000478343
51 *35:10 *194:49 0.000821703
52 *45:14 *980:B 3.4323e-06
53 *53:22 *982:A3 0.000351633
54 *55:12 *194:27 3.06406e-05
55 *65:10 *194:27 2.63834e-05
56 *80:18 *908:B 0
57 *95:63 *194:16 0.000472446
58 *97:8 *980:B 0.000180777
59 *100:10 *194:49 3.70808e-05
60 *110:12 *194:16 0.000579039
61 *124:12 *194:29 0.000524592
62 *139:14 *194:27 0.00014699
63 *146:78 *194:49 0.000137983
64 *154:18 *194:16 0.000349009
65 *155:18 *908:B 5.1584e-05
66 *155:39 *194:29 0.000607298
67 *155:78 *194:29 9.07367e-05
68 *170:16 *194:49 0.000142241
69 *170:16 *194:57 0.000555487
70 *176:44 *980:B 7.03791e-05
71 *183:121 *194:16 9.71197e-05
72 *191:69 *194:29 0.00114294
*RES
1 *1070:Q *194:4 9.3 
2 *194:4 *194:16 44.2857 
3 *194:16 *983:D 9.3 
4 *194:4 *194:27 10.9464 
5 *194:27 *194:29 50.2321 
6 *194:29 *194:31 4.5 
7 *194:31 *194:49 41.2857 
8 *194:49 *194:57 14.1607 
9 *194:57 *194:61 10.3929 
10 *194:61 *982:A3 36.3357 
11 *194:61 *974:A 12.3 
12 *194:57 *980:B 33.9429 
13 *194:49 *973:A 9.3 
14 *194:31 *908:B 23.2107 
*END

*D_NET *195 0.0441646
*CONN
*I *983:C I *D sky130_fd_sc_hd__and4_1
*I *901:A2 I *D sky130_fd_sc_hd__a21o_1
*I *908:A_N I *D sky130_fd_sc_hd__and4b_1
*I *980:A I *D sky130_fd_sc_hd__and3_1
*I *979:B I *D sky130_fd_sc_hd__nand2_1
*I *982:A2 I *D sky130_fd_sc_hd__a41o_1
*I *977:A I *D sky130_fd_sc_hd__xor2_1
*I *1071:Q O *D sky130_fd_sc_hd__dfrtp_4
*CAP
1 *983:C 0.000438136
2 *901:A2 4.41918e-05
3 *908:A_N 0.00179187
4 *980:A 0
5 *979:B 0.000432567
6 *982:A2 0
7 *977:A 0.000867938
8 *1071:Q 0.000365298
9 *195:89 0.0019649
10 *195:73 0.0034171
11 *195:63 0.00318945
12 *195:53 0.00540079
13 *195:28 0.00279444
14 *195:22 0.00200241
15 *195:12 0.00227426
16 *901:A2 *197:64 6.30931e-05
17 *901:A2 *197:81 8.6229e-06
18 *908:A_N *196:62 6.42877e-05
19 *977:A *927:A 5.80858e-06
20 *977:A *200:35 2.27924e-05
21 *983:C *934:A 0.000176541
22 *983:C *983:A 0.000153924
23 *983:C *207:45 2.06112e-05
24 *195:12 *902:B 0.000798388
25 *195:22 *910:C 0.000704464
26 *195:22 *931:A1 0.00058122
27 *195:22 *934:A 0.00180184
28 *195:22 *196:108 0.000284875
29 *195:28 *901:A1 9.0138e-05
30 *195:28 *927:A 0.000117323
31 *195:28 *196:108 4.2376e-05
32 *195:53 *201:34 0.00126933
33 *195:73 *903:A 8.65622e-05
34 *195:73 *196:18 0.000128714
35 *195:73 *199:18 0.000124931
36 *195:73 *213:28 0.000226921
37 *195:89 *197:20 0
38 *195:89 *222:12 0
39 *195:89 *222:16 0.001983
40 *893:B *977:A 2.53512e-06
41 *894:B *983:C 1.90936e-05
42 *902:D *195:12 4.58264e-05
43 *904:B *979:B 0.000228876
44 *908:B *908:A_N 0.000393271
45 *921:B *979:B 0.000254523
46 *925:A *983:C 1.00399e-05
47 *927:B *977:A 3.76045e-05
48 *929:B *195:28 0.000101989
49 *934:B *977:A 4.60209e-05
50 *939:C1 *979:B 0.000479639
51 *975:A *195:73 1.30519e-05
52 *980:B *195:73 3.15517e-05
53 *984:A *908:A_N 0.000472721
54 *1006:C *979:B 3.19901e-05
55 *1010:A *195:89 4.355e-05
56 *1011:A *195:12 6.53397e-05
57 *1019:A *977:A 2.09826e-05
58 *1063:D *983:C 0
59 *1079:RESET_B *195:73 0.000296274
60 *1083:D *195:22 0
61 *20:22 *195:73 0
62 *20:22 *195:89 0
63 *20:175 *195:28 0.000451808
64 *20:195 *977:A 5.96218e-06
65 *30:10 *901:A2 0
66 *44:10 *195:12 0.000288749
67 *45:14 *195:63 4.15526e-05
68 *45:14 *195:73 0.000149726
69 *47:18 *908:A_N 0.0001245
70 *54:20 *908:A_N 0.000241081
71 *63:14 *195:73 0
72 *70:16 *195:63 4.58615e-05
73 *76:14 *195:63 9.59781e-05
74 *80:14 *908:A_N 0.000222586
75 *85:16 *195:22 0
76 *87:32 *977:A 0.00018368
77 *87:32 *195:28 0.000106519
78 *87:69 *908:A_N 0.000362226
79 *92:14 *977:A 4.87854e-05
80 *92:14 *195:28 0.000128774
81 *93:126 *979:B 3.08664e-05
82 *95:8 *979:B 0.000397546
83 *99:18 *908:A_N 0.000650236
84 *101:18 *983:C 9.60875e-05
85 *101:18 *195:12 0.00019556
86 *109:10 *979:B 0.00011534
87 *116:34 *195:22 0.000113783
88 *123:12 *983:C 4.19624e-06
89 *126:47 *195:89 0
90 *146:51 *908:A_N 9.41642e-05
91 *152:28 *195:53 0.000835565
92 *152:28 *195:63 0.000540802
93 *152:28 *195:73 9.63211e-05
94 *154:18 *983:C 3.53079e-05
95 *155:18 *908:A_N 2.42516e-05
96 *162:38 *195:63 1.26641e-05
97 *162:38 *195:73 1.19191e-05
98 *166:59 *195:73 0.000288791
99 *171:26 *977:A 0.00011932
100 *171:26 *195:28 0.0001742
101 *171:26 *195:73 7.53554e-06
102 *177:22 *908:A_N 0.000360288
103 *184:66 *195:73 0.000364091
104 *187:47 *195:12 8.45781e-05
105 *189:33 *195:22 0.000640235
106 *189:33 *195:28 3.91734e-05
*RES
1 *1071:Q *195:12 28.3439 
2 *195:12 *195:22 14.759 
3 *195:22 *195:28 1.65283 
4 *195:28 *977:A 20.133 
5 *195:28 *195:53 7.84993 
6 *195:53 *195:63 11.3311 
7 *195:63 *195:73 22.8568 
8 *195:73 *195:89 41.4643 
9 *195:89 *982:A2 9.3 
10 *195:73 *979:B 26.4071 
11 *195:63 *980:A 13.8 
12 *195:53 *908:A_N 39.8249 
13 *195:22 *901:A2 18.0939 
14 *195:12 *983:C 31.1613 
*END

*D_NET *196 0.0385037
*CONN
*I *983:B I *D sky130_fd_sc_hd__and4_1
*I *981:B2 I *D sky130_fd_sc_hd__o221a_1
*I *901:A1 I *D sky130_fd_sc_hd__a21o_1
*I *908:D I *D sky130_fd_sc_hd__and4b_1
*I *979:A I *D sky130_fd_sc_hd__nand2_1
*I *982:A1 I *D sky130_fd_sc_hd__a41o_1
*I *1072:Q O *D sky130_fd_sc_hd__dfrtp_4
*CAP
1 *983:B 0.000920279
2 *981:B2 0.000107534
3 *901:A1 0.000173283
4 *908:D 0
5 *979:A 0.00108485
6 *982:A1 0.0010303
7 *1072:Q 0
8 *196:108 0.00227813
9 *196:89 0.00238701
10 *196:62 0.00195342
11 *196:18 0.00375389
12 *196:10 0.00384816
13 *196:4 0.00121941
14 *901:A1 *901:B1 4.96113e-05
15 *901:A1 *197:64 1.88175e-05
16 *982:A1 *982:B1 0.00114405
17 *983:B *910:A 0.000260574
18 *983:B *910:C 7.05946e-05
19 *983:B *910:D 9.41642e-05
20 *983:B *931:A1 0.000321943
21 *196:10 *198:33 1.21258e-05
22 *196:10 *214:98 1.94879e-05
23 *196:18 *903:A 0
24 *196:62 *1004:B1 0.000191187
25 *196:89 *198:33 0.000160271
26 *196:89 *202:24 0.000127359
27 *196:108 *931:A1 0.00181141
28 *895:B1 *196:108 0.000108229
29 *904:B *979:A 0
30 *908:A_N *196:62 6.42877e-05
31 *908:B *196:62 0.000298868
32 *930:A *981:B2 3.10052e-05
33 *939:A2 *979:A 1.90936e-05
34 *949:A *979:A 0.000173743
35 *949:B *979:A 5.65955e-05
36 *954:A *982:A1 0.000118045
37 *954:B *982:A1 2.12005e-05
38 *972:A2 *196:89 6.09762e-05
39 *981:A2 *981:B2 9.54798e-06
40 *981:C1 *981:B2 1.40893e-05
41 *981:C1 *983:B 0
42 *984:A *196:62 0.000472721
43 *986:B *982:A1 0.0012853
44 *994:A2 *196:10 5.5764e-05
45 *1013:A *196:18 0.000163483
46 *1030:A *981:B2 6.71687e-05
47 *1038:A *196:108 0.000100368
48 *1054:RESET_B *196:89 0.000173033
49 *1056:CLK *196:18 0.000303707
50 *1060:CLK *983:B 0.000142043
51 *1066:CLK *196:18 5.36422e-05
52 *1067:RESET_B *196:62 0.000115499
53 *1069:RESET_B *979:A 8.49911e-05
54 *1079:RESET_B *982:A1 2.6913e-05
55 *1086:A *196:18 0.000103262
56 *25:12 *196:10 2.59355e-05
57 *25:12 *196:89 4.05926e-05
58 *27:26 *196:89 9.81006e-05
59 *46:10 *196:18 0.000553831
60 *63:14 *196:18 0.00164603
61 *76:14 *196:18 2.11419e-05
62 *93:10 *983:B 0.000126956
63 *93:20 *983:B 5.51688e-05
64 *93:126 *979:A 4.53593e-05
65 *109:10 *982:A1 0
66 *112:52 *196:18 0.000373868
67 *112:75 *196:10 0.000493158
68 *112:75 *196:18 0.000203979
69 *117:47 *196:89 3.89539e-05
70 *122:18 *196:89 2.92054e-05
71 *124:12 *196:10 0.00015902
72 *124:12 *196:18 0.000184972
73 *126:16 *982:A1 7.32955e-05
74 *126:47 *982:A1 4.37451e-05
75 *145:10 *983:B 4.12426e-05
76 *146:38 *196:62 0.00164871
77 *146:51 *196:62 0.000142211
78 *151:26 *979:A 2.06112e-05
79 *151:26 *981:B2 9.83721e-06
80 *151:26 *196:89 0
81 *151:26 *196:108 0.000460628
82 *152:28 *901:A1 6.43087e-06
83 *152:28 *981:B2 9.54798e-06
84 *152:28 *983:B 2.24823e-05
85 *152:28 *196:108 0.000263358
86 *154:18 *983:B 1.38323e-05
87 *155:18 *196:62 0.000256729
88 *159:22 *196:18 0.000105553
89 *171:26 *901:A1 9.11825e-07
90 *171:26 *196:89 0.000975368
91 *173:18 *982:A1 2.09115e-05
92 *175:80 *196:62 0.000122439
93 *176:141 *981:B2 0
94 *183:77 *196:18 1.06328e-05
95 *184:33 *982:A1 1.90936e-05
96 *184:66 *196:18 0.000411178
97 *184:88 *196:89 0.000498505
98 *188:63 *979:A 0.00102616
99 *188:63 *982:A1 0.00022197
100 *189:10 *901:A1 1.26634e-05
101 *194:16 *983:B 0.000261799
102 *195:22 *196:108 0.000284875
103 *195:28 *901:A1 9.0138e-05
104 *195:28 *196:108 4.2376e-05
105 *195:73 *196:18 0.000128714
*RES
1 *1072:Q *196:4 9.3 
2 *196:4 *196:10 11.5357 
3 *196:10 *196:18 46.0714 
4 *196:18 *982:A1 41.5143 
5 *196:18 *979:A 33.6214 
6 *196:10 *196:62 44.1741 
7 *196:62 *908:D 9.3 
8 *196:4 *196:89 22.5182 
9 *196:89 *901:A1 18.8919 
10 *196:89 *196:108 4.0561 
11 *196:108 *981:B2 19.6118 
12 *196:108 *983:B 31.0561 
*END

*D_NET *197 0.0320126
*CONN
*I *983:A I *D sky130_fd_sc_hd__and4_1
*I *901:B1 I *D sky130_fd_sc_hd__a21o_1
*I *907:A_N I *D sky130_fd_sc_hd__and4b_1
*I *982:B1 I *D sky130_fd_sc_hd__a41o_1
*I *1073:Q O *D sky130_fd_sc_hd__dfrtp_2
*CAP
1 *983:A 0.000524942
2 *901:B1 2.76564e-05
3 *907:A_N 0.00102782
4 *982:B1 0.000803665
5 *1073:Q 3.96549e-05
6 *197:81 0.00324789
7 *197:64 0.0030855
8 *197:41 0.00276901
9 *197:20 0.00219492
10 *197:8 0.00283721
11 *983:A *931:A1 0
12 *197:41 *940:A 0.000282485
13 *197:41 *212:37 7.40526e-05
14 *894:A *983:A 0
15 *895:A2 *901:B1 9.64165e-05
16 *895:B1 *983:A 0
17 *901:A1 *901:B1 4.96113e-05
18 *901:A1 *197:64 1.88175e-05
19 *901:A2 *197:64 6.30931e-05
20 *901:A2 *197:81 8.6229e-06
21 *907:B *907:A_N 2.12087e-05
22 *907:C *907:A_N 0.00108207
23 *907:C *197:41 0.000227639
24 *921:B *197:20 0.00011889
25 *954:A *982:B1 0.000142152
26 *954:B *982:B1 0.000407583
27 *954:B *197:20 6.2155e-06
28 *954:C *982:B1 0.000185547
29 *972:A2 *197:41 0.000257806
30 *982:A1 *982:B1 0.00114405
31 *983:C *983:A 0.000153924
32 *988:B *197:41 0.00088335
33 *1010:A *197:20 3.18676e-05
34 *1010:B *197:20 0.000909386
35 *1010:B *197:41 0.00020474
36 *1030:A *197:81 6.95595e-05
37 *1038:A *197:81 2.44318e-05
38 *1063:D *983:A 0
39 *1073:RESET_B *197:8 5.49489e-05
40 *1076:RESET_B *197:81 4.22188e-05
41 *1077:CLK *907:A_N 0.000262223
42 *1077:RESET_B *907:A_N 1.21258e-05
43 *20:152 *197:41 0.000508956
44 *20:175 *197:64 0.000450124
45 *27:26 *197:41 0.000235746
46 *27:26 *197:64 4.16548e-05
47 *30:10 *197:64 0
48 *30:10 *197:81 0.00175591
49 *36:26 *197:41 4.65519e-05
50 *51:20 *907:A_N 4.38088e-05
51 *67:16 *197:41 0.000136485
52 *83:28 *907:A_N 1.08413e-05
53 *95:21 *197:20 0.000345246
54 *95:21 *197:41 6.63719e-05
55 *101:18 *907:A_N 0.0014708
56 *101:18 *197:41 0.000260245
57 *102:45 *907:A_N 9.1079e-05
58 *103:66 *197:20 0.000649297
59 *112:96 *197:41 4.926e-05
60 *116:34 *983:A 0
61 *126:47 *982:B1 0.000110018
62 *135:16 *197:41 0.000836154
63 *152:28 *197:81 0.000375519
64 *154:18 *983:A 0.000228189
65 *165:12 *907:A_N 5.33005e-05
66 *169:18 *197:41 0
67 *173:12 *197:20 1.63985e-05
68 *184:88 *197:64 0.000307964
69 *186:18 *197:41 0.0002034
70 *189:10 *197:81 0
71 *192:86 *197:41 0.000326023
72 *195:89 *197:20 0
*RES
1 *1073:Q *197:8 14.3357 
2 *197:8 *197:20 33.0089 
3 *197:20 *982:B1 30.1661 
4 *197:8 *197:41 41.3629 
5 *197:41 *907:A_N 24.5555 
6 *197:41 *197:64 10.9725 
7 *197:64 *901:B1 14.7464 
8 *197:64 *197:81 45.0357 
9 *197:81 *983:A 23.6929 
*END

*D_NET *198 0.028473
*CONN
*I *902:C I *D sky130_fd_sc_hd__and4_4
*I *915:A I *D sky130_fd_sc_hd__nand2_1
*I *920:A1 I *D sky130_fd_sc_hd__a21o_1
*I *923:A2 I *D sky130_fd_sc_hd__a31o_1
*I *919:B I *D sky130_fd_sc_hd__nand3_1
*I *916:A I *D sky130_fd_sc_hd__or2_1
*I *1055:Q O *D sky130_fd_sc_hd__dfrtp_4
*CAP
1 *902:C 0.000578382
2 *915:A 0.000187312
3 *920:A1 0.000371317
4 *923:A2 0
5 *919:B 0.000610603
6 *916:A 0.000460559
7 *1055:Q 0
8 *198:62 0.000723368
9 *198:45 0.00114392
10 *198:43 0.00105977
11 *198:37 0.00227221
12 *198:33 0.00399351
13 *198:4 0.00345142
14 *919:B *900:A 0.00112598
15 *919:B *919:A 5.33005e-05
16 *919:B *220:37 0.000178847
17 *920:A1 *920:B1 0.000228508
18 *920:A1 *923:A1 5.65955e-05
19 *920:A1 *923:B1 2.12005e-05
20 *920:A1 *1095:A 7.2007e-05
21 *920:A1 *217:14 0.000222616
22 *198:62 *923:A1 1.64621e-05
23 *902:D *902:C 0.000575511
24 *915:B *915:A 0.000224583
25 *921:A *919:B 3.03894e-05
26 *923:A3 *198:62 0.000392217
27 *933:A *916:A 0.00012502
28 *933:A *198:33 0.00022511
29 *951:C *198:43 0.00115162
30 *1008:B1 *920:A1 9.83442e-05
31 *1054:RESET_B *198:33 1.3828e-05
32 *1054:RESET_B *198:37 0.000294981
33 *1055:CLK *198:33 7.7154e-05
34 *1055:D *198:33 0.000386193
35 *1060:CLK *902:C 0.000667937
36 *1063:RESET_B *902:C 4.43157e-05
37 *1072:CLK *198:37 0.00064481
38 *1072:RESET_B *198:33 0.000169673
39 *1080:CLK *915:A 4.37451e-05
40 *25:12 *198:33 2.52927e-05
41 *32:16 *916:A 0
42 *35:10 *198:33 7.7789e-05
43 *54:20 *916:A 0.000706968
44 *70:16 *919:B 0.000282308
45 *71:12 *198:37 0.000841699
46 *80:18 *198:33 3.92201e-05
47 *91:27 *919:B 4.99283e-06
48 *93:68 *916:A 3.08664e-05
49 *102:51 *920:A1 0.000215129
50 *110:12 *198:62 0.00022367
51 *130:12 *919:B 0.00092599
52 *130:12 *198:43 0.000330514
53 *130:12 *198:45 0.000364538
54 *133:79 *198:33 0.000252376
55 *134:18 *198:33 0.000111719
56 *144:18 *198:33 2.79421e-05
57 *145:10 *902:C 6.02792e-05
58 *145:10 *198:43 4.22135e-06
59 *146:12 *198:43 0.000116092
60 *158:14 *198:37 0.00038704
61 *165:33 *198:43 0.000225307
62 *177:123 *919:B 0.000174259
63 *183:121 *198:43 0.000170661
64 *187:22 *198:33 0.000219554
65 *187:47 *902:C 0.000182301
66 *187:47 *198:43 5.9548e-05
67 *187:47 *198:45 4.60232e-06
68 *187:49 *198:45 4.82403e-05
69 *187:55 *919:B 2.30116e-06
70 *187:55 *198:45 5.68045e-05
71 *187:55 *198:62 0.000135028
72 *196:10 *198:33 1.21258e-05
73 *196:89 *198:33 0.000160271
*RES
1 *1055:Q *198:4 9.3 
2 *198:4 *916:A 29.55 
3 *198:4 *198:33 49.3214 
4 *198:33 *198:37 25.9821 
5 *198:37 *198:43 20.2143 
6 *198:43 *198:45 4.98214 
7 *198:45 *919:B 35.1214 
8 *198:45 *198:62 11.625 
9 *198:62 *923:A2 9.3 
10 *198:62 *920:A1 27.7464 
11 *198:43 *915:A 17.2286 
12 *198:37 *902:C 27.6929 
*END

*D_NET *199 0.0274001
*CONN
*I *910:D I *D sky130_fd_sc_hd__and4_2
*I *989:A I *D sky130_fd_sc_hd__nand2_1
*I *988:A I *D sky130_fd_sc_hd__or2_1
*I *993:B I *D sky130_fd_sc_hd__and4_1
*I *1074:Q O *D sky130_fd_sc_hd__dfrtp_2
*CAP
1 *910:D 7.70325e-05
2 *989:A 0
3 *988:A 0
4 *993:B 5.63662e-05
5 *1074:Q 0.00280403
6 *199:78 0.00156043
7 *199:60 0.00251902
8 *199:41 0.00133015
9 *199:18 0.00330898
10 *993:B *934:A 2.19495e-05
11 *199:18 *204:43 0.000201462
12 *199:18 *213:28 3.85293e-06
13 *199:18 *219:12 0.000243465
14 *199:60 *931:B1 0.00127378
15 *199:78 *217:14 0.000481364
16 *893:A *199:60 6.26276e-05
17 *894:A *199:60 0.00144306
18 *894:B *199:60 0.000196107
19 *894:B *199:78 0.000692576
20 *926:A *199:18 7.67307e-06
21 *942:C *993:B 4.79414e-05
22 *942:C *199:41 0.000558738
23 *975:A *199:18 0.000130373
24 *983:B *910:D 9.41642e-05
25 *988:B *199:41 0.000127441
26 *989:B *199:78 6.51456e-05
27 *993:C *993:B 2.22043e-05
28 *1063:D *199:60 0.000205357
29 *1063:D *199:78 0.000690915
30 *1074:RESET_B *199:18 0.00029032
31 *1078:RESET_B *199:18 8.79752e-05
32 *1083:RESET_B *199:60 0.000332301
33 *30:10 *199:41 0.000114068
34 *45:14 *199:18 8.44015e-06
35 *66:14 *199:60 0.00029848
36 *74:14 *199:78 0
37 *85:42 *199:41 2.89114e-05
38 *85:42 *199:60 0.000106943
39 *86:43 *199:41 0.000182868
40 *101:18 *993:B 4.58508e-05
41 *101:18 *199:41 0.000176548
42 *109:10 *199:18 0.000662208
43 *117:37 *199:78 0.000519896
44 *122:18 *993:B 9.60337e-06
45 *126:132 *199:41 5.52302e-05
46 *126:132 *199:60 0.000249164
47 *129:26 *199:18 0.00289623
48 *152:28 *199:18 4.00893e-05
49 *166:59 *199:18 0.000379112
50 *171:26 *199:18 0.00170413
51 *173:90 *199:78 6.45404e-05
52 *177:89 *199:78 0.000310982
53 *184:88 *199:41 4.8817e-05
54 *185:6 *199:60 1.00733e-05
55 *185:19 *199:60 0.000426192
56 *195:73 *199:18 0.000124931
*RES
1 *1074:Q *199:18 43.9382 
2 *199:18 *993:B 17.6419 
3 *199:18 *199:41 13.0096 
4 *199:41 *988:A 9.3 
5 *199:41 *199:60 35.2857 
6 *199:60 *199:78 46.2143 
7 *199:78 *989:A 13.8 
8 *199:60 *910:D 14.7464 
*END

*D_NET *200 0.0236917
*CONN
*I *910:C I *D sky130_fd_sc_hd__and4_2
*I *993:A I *D sky130_fd_sc_hd__and4_1
*I *992:A I *D sky130_fd_sc_hd__inv_2
*I *1075:Q O *D sky130_fd_sc_hd__dfrtp_2
*CAP
1 *910:C 0.00173487
2 *993:A 0.000288068
3 *992:A 0
4 *1075:Q 3.34103e-05
5 *200:35 0.0038845
6 *200:20 0.000946903
7 *200:16 0.00131608
8 *200:8 0.00226414
9 *910:C *910:A 0.000469772
10 *910:C *931:A1 0.000278647
11 *910:C *934:A 0.000278293
12 *200:16 *215:12 0.000441731
13 *200:35 *934:A 0.000477142
14 *893:B *910:C 2.63501e-05
15 *893:B *200:35 0.000976589
16 *908:B *200:20 0.000421491
17 *934:B *200:35 0.000175557
18 *944:A3 *200:20 2.99773e-05
19 *970:A *200:35 0.000274812
20 *977:A *200:35 2.27924e-05
21 *981:C1 *910:C 0.000170865
22 *983:B *910:C 7.05946e-05
23 *984:B *200:20 0.000483069
24 *988:B *910:C 9.53302e-05
25 *994:A2 *993:A 0
26 *1071:RESET_B *910:C 7.61841e-05
27 *1081:CLK *200:8 5.33005e-05
28 *20:175 *993:A 0.000173383
29 *27:26 *910:C 8.94491e-05
30 *35:10 *200:16 0.000220306
31 *35:10 *200:35 1.12323e-05
32 *38:26 *200:35 1.30843e-05
33 *62:14 *200:20 0.00102434
34 *80:18 *200:20 0
35 *87:32 *200:35 3.71769e-05
36 *92:14 *200:16 0.000217053
37 *92:14 *200:35 1.90936e-05
38 *116:34 *910:C 0.000113783
39 *116:34 *200:35 0.000104681
40 *154:18 *910:C 0.00059044
41 *154:26 *993:A 9.8475e-05
42 *161:14 *200:20 0.0029515
43 *161:14 *200:35 0.000362849
44 *166:69 *200:20 1.3142e-05
45 *171:26 *200:35 0
46 *183:24 *200:35 0.000112662
47 *189:33 *910:C 0.00115349
48 *194:49 *200:20 0.000390591
49 *195:22 *910:C 0.000704464
*RES
1 *1075:Q *200:8 14.3357 
2 *200:8 *200:16 16.0893 
3 *200:16 *200:20 42.875 
4 *200:20 *992:A 9.3 
5 *200:8 *200:35 8.47452 
6 *200:35 *993:A 21.8082 
7 *200:35 *910:C 29.8421 
*END

*D_NET *201 0.0306085
*CONN
*I *910:B I *D sky130_fd_sc_hd__and4_2
*I *996:A I *D sky130_fd_sc_hd__and2_1
*I *995:A I *D sky130_fd_sc_hd__nor2_1
*I *1076:Q O *D sky130_fd_sc_hd__dfrtp_2
*CAP
1 *910:B 0.000447019
2 *996:A 0
3 *995:A 0.000285807
4 *1076:Q 0
5 *201:78 0.00159757
6 *201:56 0.00128051
7 *201:40 0.0016202
8 *201:34 0.00256791
9 *201:6 0.00309296
10 *910:B *902:B 0.000347768
11 *910:B *207:45 0.000371458
12 *995:A *221:22 0.000224521
13 *201:34 *927:A 0
14 *201:34 *203:60 0.000263108
15 *201:34 *205:30 0.000152435
16 *889:B *201:56 0.000149941
17 *895:B1 *910:B 2.83786e-05
18 *902:D *910:B 0
19 *953:B1 *201:34 4.65519e-05
20 *975:A *201:56 0.000141196
21 *980:B *201:56 0.000771163
22 *982:A3 *201:56 3.36815e-05
23 *995:B *995:A 0.00132318
24 *1028:A *995:A 0.00124346
25 *1034:A *201:56 1.24368e-05
26 *1035:A *201:40 6.95892e-05
27 *1060:CLK *910:B 0
28 *1062:D *201:40 0.000136951
29 *1062:D *201:56 3.03304e-05
30 *1062:RESET_B *995:A 3.18747e-05
31 *1067:RESET_B *201:34 8.74522e-05
32 *1076:RESET_B *201:78 2.30913e-05
33 *1088:A *201:34 0.000149498
34 *20:175 *201:34 4.41457e-05
35 *29:12 *201:78 0.00151629
36 *45:14 *201:34 2.35985e-05
37 *45:14 *201:40 0.00135035
38 *50:28 *201:34 2.15327e-05
39 *53:22 *201:56 0.000752492
40 *59:16 *201:56 0.000180501
41 *79:14 *201:40 9.96487e-05
42 *87:32 *201:34 9.88944e-05
43 *97:8 *201:40 0.000125547
44 *97:8 *201:56 0.000139907
45 *124:12 *201:34 4.1664e-05
46 *132:14 *201:34 0.000581888
47 *148:54 *201:78 0.00320174
48 *152:28 *201:78 0.00020263
49 *162:28 *201:34 0.000558565
50 *162:28 *201:40 0.00017429
51 *162:38 *201:56 4.27935e-05
52 *162:54 *201:56 0.000193852
53 *168:26 *201:40 0.000914942
54 *169:8 *201:34 0.000263108
55 *176:16 *201:56 0.000680605
56 *176:44 *201:56 0.000691089
57 *183:141 *201:56 0.000909034
58 *195:53 *201:34 0.00126933
*RES
1 *1076:Q *201:6 13.8 
2 *201:6 *201:34 42.8105 
3 *201:34 *201:40 24.0446 
4 *201:40 *201:56 47.75 
5 *201:56 *995:A 23.3 
6 *201:40 *996:A 9.3 
7 *201:6 *201:78 48.5357 
8 *201:78 *910:B 23.6393 
*END

*D_NET *202 0.0190447
*CONN
*I *910:A I *D sky130_fd_sc_hd__and4_2
*I *1000:A1 I *D sky130_fd_sc_hd__o211a_1
*I *1077:Q O *D sky130_fd_sc_hd__dfrtp_1
*CAP
1 *910:A 0.000513961
2 *1000:A1 4.66919e-05
3 *1077:Q 0.00224447
4 *202:30 0.00155858
5 *202:24 0.00427032
6 *202:30 *218:16 0.00060586
7 *910:C *910:A 0.000469772
8 *930:A *202:30 0.00027706
9 *951:C *202:24 0.00250898
10 *963:A *202:30 9.60939e-05
11 *981:C1 *910:A 0.000180104
12 *983:B *910:A 0.000260574
13 *993:C *202:24 2.54616e-05
14 *1000:C1 *1000:A1 0.000151141
15 *1054:RESET_B *202:24 0.00031771
16 *1071:RESET_B *910:A 0.000513655
17 *1071:RESET_B *202:30 1.65457e-05
18 *1084:RESET_B *202:24 6.38616e-05
19 *39:8 *202:30 0.000129991
20 *42:12 *202:30 0.000550317
21 *49:16 *202:30 0.000844487
22 *65:10 *202:30 0
23 *68:12 *202:30 0.00100369
24 *93:20 *910:A 5.64283e-05
25 *93:20 *202:30 0.000265744
26 *117:47 *202:24 0.000316629
27 *122:18 *202:24 0.00032878
28 *126:97 *202:24 0.000153261
29 *129:26 *202:24 3.43988e-06
30 *130:12 *202:30 0
31 *145:10 *202:30 2.21541e-05
32 *154:18 *910:A 2.14757e-05
33 *164:37 *1000:A1 0.000149419
34 *175:159 *202:30 5.59046e-05
35 *177:61 *202:30 0.000147835
36 *177:80 *202:30 0.000525428
37 *187:22 *202:24 5.33005e-05
38 *187:45 *202:24 0.000168187
39 *196:89 *202:24 0.000127359
*RES
1 *1077:Q *202:24 33.8844 
2 *202:24 *202:30 47.3482 
3 *202:30 *1000:A1 20.2464 
4 *202:24 *910:A 26.7732 
*END

*D_NET *203 0.0227665
*CONN
*I *1001:A I *D sky130_fd_sc_hd__inv_2
*I *911:C1 I *D sky130_fd_sc_hd__o211ai_4
*I *1004:A1 I *D sky130_fd_sc_hd__a31o_1
*I *1078:Q O *D sky130_fd_sc_hd__dfrtp_4
*CAP
1 *1001:A 0
2 *911:C1 0.000782932
3 *1004:A1 7.19308e-06
4 *1078:Q 0.00106136
5 *203:98 0.000850119
6 *203:60 0.00180386
7 *203:48 0.00254098
8 *203:24 0.00173849
9 *203:48 *941:A 0.000135028
10 *203:60 *1004:B1 0.000221634
11 *905:D *203:48 0.000312431
12 *907:D *203:60 4.15526e-05
13 *911:B1 *911:C1 7.03393e-05
14 *929:C *203:98 0.000168393
15 *946:A *203:24 1.7275e-05
16 *960:C *203:98 0.000166758
17 *961:A *203:24 0.000154357
18 *967:B *203:24 0.000636401
19 *967:B *203:48 4.15526e-05
20 *970:C *203:98 0.000965303
21 *1004:A3 *203:60 0.000221365
22 *1045:A *911:C1 0
23 *1057:D *203:24 9.41642e-05
24 *1067:D *203:98 1.96616e-05
25 *1067:RESET_B *203:60 5.24153e-05
26 *1069:RESET_B *203:24 4.45639e-05
27 *1084:RESET_B *203:48 0.000623478
28 *1090:A *203:48 0.00016719
29 *1090:A *203:98 0.000135391
30 *20:129 *203:60 9.41642e-05
31 *43:24 *203:48 0.000416055
32 *50:28 *911:C1 0.000109337
33 *50:28 *203:60 0.000216564
34 *54:20 *203:60 4.37979e-05
35 *61:22 *203:48 3.28554e-05
36 *80:14 *203:48 6.54386e-05
37 *85:16 *203:98 0.000166807
38 *90:16 *203:98 0.000730028
39 *93:50 *911:C1 0.000163596
40 *93:50 *1004:A1 1.21859e-05
41 *93:126 *203:24 0
42 *96:12 *203:48 0.000136676
43 *102:14 *911:C1 0.000270326
44 *103:38 *203:48 3.5848e-05
45 *103:52 *203:24 0
46 *126:97 *203:98 0.000644268
47 *126:132 *203:98 5.13496e-05
48 *127:10 *203:24 7.70035e-05
49 *134:18 *203:60 4.00349e-05
50 *138:14 *203:24 0.000141734
51 *154:18 *203:98 5.33005e-05
52 *158:26 *203:24 7.58841e-05
53 *158:26 *203:48 6.47188e-05
54 *165:33 *203:60 0.00218231
55 *165:33 *203:98 0.000219289
56 *166:59 *203:24 9.21209e-05
57 *169:8 *203:60 0.000717325
58 *175:80 *911:C1 9.56496e-05
59 *175:153 *203:24 0.000180072
60 *181:44 *203:24 9.58181e-05
61 *185:27 *203:98 8.44271e-06
62 *185:43 *203:24 0
63 *185:43 *203:48 0
64 *187:22 *911:C1 0.000515014
65 *187:22 *1004:A1 2.06112e-05
66 *189:61 *203:98 0
67 *191:90 *203:48 0.000213455
68 *193:16 *203:24 0.00144717
69 *201:34 *203:60 0.000263108
*RES
1 *1078:Q *203:24 48.7286 
2 *203:24 *203:48 35.8702 
3 *203:48 *203:60 36.0596 
4 *203:60 *1004:A1 14.0768 
5 *203:60 *911:C1 31.1125 
6 *203:48 *203:98 42.6429 
7 *203:98 *1001:A 9.3 
*END

*D_NET *204 0.0228941
*CONN
*I *900:A I *D sky130_fd_sc_hd__inv_2
*I *1009:A2 I *D sky130_fd_sc_hd__o211a_1
*I *1004:B1 I *D sky130_fd_sc_hd__a31o_1
*I *1079:Q O *D sky130_fd_sc_hd__dfrtp_2
*CAP
1 *900:A 0.000850484
2 *1009:A2 2.51363e-05
3 *1004:B1 0.000198041
4 *1079:Q 0.000260415
5 *204:43 0.00190075
6 *204:22 0.00202307
7 *204:8 0.00311057
8 *204:8 *1014:B1_N 1.49523e-05
9 *204:22 *214:16 0.000112429
10 *204:43 *1009:A1 8.73648e-05
11 *204:43 *213:28 0
12 *912:A1 *204:22 0.000614554
13 *919:B *900:A 0.00112598
14 *950:B *204:43 0.000297358
15 *1004:A3 *1004:B1 0.00016924
16 *1008:B2 *900:A 0.000364259
17 *1009:B1 *1009:A2 3.47793e-05
18 *1009:C1 *900:A 0.00168957
19 *1009:C1 *1009:A2 4.60153e-05
20 *1016:A *204:22 0.000233284
21 *1017:A2 *204:22 3.88987e-05
22 *1053:RESET_B *204:22 0.000625879
23 *1078:RESET_B *204:43 0.00115356
24 *38:26 *204:22 6.42122e-06
25 *39:8 *900:A 0.00160889
26 *45:14 *204:8 4.62908e-05
27 *45:14 *204:43 6.07037e-07
28 *63:14 *204:8 0
29 *74:14 *204:43 0.00045834
30 *84:29 *204:22 0.000730421
31 *91:27 *204:22 0.000278744
32 *93:126 *204:43 1.80032e-05
33 *112:18 *204:43 8.34352e-05
34 *112:141 *900:A 4.01264e-05
35 *112:141 *1009:A2 0.000110059
36 *133:60 *204:22 0.000374213
37 *137:20 *204:43 8.06676e-05
38 *146:38 *1004:B1 1.98839e-05
39 *146:51 *1004:B1 3.87898e-05
40 *160:18 *204:22 0.00112382
41 *166:8 *900:A 4.04691e-06
42 *166:14 *900:A 0.000241554
43 *166:59 *204:43 6.1413e-05
44 *168:14 *204:43 0.000186958
45 *168:26 *204:43 9.63536e-05
46 *169:8 *1004:B1 0.000386121
47 *175:16 *204:8 0.000138471
48 *176:14 *204:22 0.000167586
49 *177:123 *900:A 9.25014e-06
50 *188:24 *204:22 0.000109373
51 *191:90 *204:22 0.000168722
52 *193:16 *204:43 0
53 *194:57 *204:22 0.000280784
54 *194:61 *204:22 0.000433918
55 *196:62 *1004:B1 0.000191187
56 *199:18 *204:43 0.000201462
57 *203:60 *1004:B1 0.000221634
*RES
1 *1079:Q *204:8 18.0232 
2 *204:8 *204:22 47.8026 
3 *204:22 *1004:B1 15.6036 
4 *204:8 *204:43 18.9888 
5 *204:43 *1009:A2 10.675 
6 *204:43 *900:A 49.9786 
*END

*D_NET *205 0.021883
*CONN
*I *1009:A1 I *D sky130_fd_sc_hd__o211a_1
*I *912:B1_N I *D sky130_fd_sc_hd__a21bo_4
*I *1080:Q O *D sky130_fd_sc_hd__dfrtp_1
*CAP
1 *1009:A1 0.00150509
2 *912:B1_N 0.000122951
3 *1080:Q 0.00209553
4 *205:30 0.00348139
5 *205:12 0.00695905
6 *205:12 *213:12 4.5258e-05
7 an[7] *205:12 8.21056e-05
8 *891:A *912:B1_N 1.58163e-05
9 *907:C *205:30 3.51958e-05
10 *946:A *205:30 3.49846e-05
11 *950:B *1009:A1 2.08536e-05
12 *976:A *205:30 5.47064e-05
13 *990:A *205:12 6.28766e-05
14 *990:A *205:30 0.000208166
15 *1086:A *205:30 0.000171879
16 *1088:A *205:30 0.000843998
17 *20:129 *205:30 0.000273464
18 *36:26 *1009:A1 8.4314e-05
19 *43:24 *205:30 0.000199781
20 *61:22 *205:12 0.000288672
21 *61:22 *205:30 0.000367943
22 *69:10 *205:12 4.5258e-05
23 *74:14 *1009:A1 0.000110777
24 *80:14 *205:12 0
25 *80:14 *205:30 0
26 *83:28 *912:B1_N 6.8377e-06
27 *83:28 *205:30 0
28 *86:51 *1009:A1 0.00153013
29 *91:27 *205:30 0
30 *103:14 *912:B1_N 0.000131204
31 *103:24 *205:30 0.000687302
32 *103:38 *205:30 2.87949e-05
33 *118:30 *205:30 0
34 *149:16 *205:30 0.000120604
35 *162:28 *205:30 0
36 *162:38 *205:30 4.18606e-05
37 *167:18 *1009:A1 0.000745699
38 *167:18 *205:12 4.65519e-05
39 *168:14 *1009:A1 0.00065297
40 *177:80 *205:12 0.000147471
41 *178:33 *205:30 0.000158785
42 *187:22 *205:30 0
43 *188:14 *205:30 7.79224e-05
44 *188:102 *912:B1_N 9.41642e-05
45 *189:61 *205:12 6.90381e-06
46 *189:61 *205:30 4.74602e-05
47 *193:16 *1009:A1 8.49861e-06
48 *201:34 *205:30 0.000152435
49 *204:43 *1009:A1 8.73648e-05
*RES
1 *1080:Q *205:12 21.9091 
2 *205:12 *205:30 45.6455 
3 *205:30 *912:B1_N 16.4071 
4 *205:12 *1009:A1 28.8548 
*END

*D_NET *206 0.0185797
*CONN
*I *902:B I *D sky130_fd_sc_hd__and4_4
*I *923:A1 I *D sky130_fd_sc_hd__a31o_1
*I *920:B1 I *D sky130_fd_sc_hd__a21o_1
*I *919:A I *D sky130_fd_sc_hd__nand3_1
*I *1056:Q O *D sky130_fd_sc_hd__dfrtp_2
*CAP
1 *902:B 0.001031
2 *923:A1 0.000155016
3 *920:B1 0.000594637
4 *919:A 0.000498186
5 *1056:Q 0.00166627
6 *206:22 0.00114551
7 *206:20 0.000270343
8 *206:18 0.00275992
9 *902:B *207:45 0.0014839
10 *919:A *220:37 1.98839e-05
11 *920:B1 *1095:A 7.02461e-05
12 *923:A1 *923:B1 0.00035119
13 *206:20 *207:45 5.49657e-05
14 *902:D *902:B 7.66623e-05
15 *910:B *902:B 0.000347768
16 *919:B *919:A 5.33005e-05
17 *919:C *919:A 0.00123395
18 *919:C *206:20 3.14003e-05
19 *919:C *206:22 0.000222616
20 *920:A1 *920:B1 0.000228508
21 *920:A1 *923:A1 5.65955e-05
22 *921:A *919:A 3.69047e-06
23 *923:A3 *923:A1 0.000377176
24 *1002:A *919:A 1.18064e-05
25 *1008:B1 *920:B1 4.4873e-05
26 *1008:B2 *920:B1 5.49544e-05
27 *1080:D *920:B1 4.61213e-05
28 *1093:A *206:18 0.000182671
29 *20:104 *206:18 0.0011015
30 *93:108 *206:18 0
31 *103:52 *206:18 0.000121877
32 *166:8 *902:B 0.0010005
33 *166:8 *919:A 0.000144191
34 *166:8 *206:20 0.000136166
35 *166:8 *206:22 0.000215854
36 *166:14 *919:A 0.000756405
37 *168:14 *919:A 0.000348941
38 *181:8 *206:18 9.41642e-05
39 *183:77 *206:18 0.000479532
40 *187:47 *902:B 0.000239208
41 *187:55 *923:A1 5.33005e-05
42 *195:12 *902:B 0.000798388
43 *198:62 *923:A1 1.64621e-05
*RES
1 *1056:Q *206:18 48.9429 
2 *206:18 *206:20 1.94643 
3 *206:20 *206:22 2.85714 
4 *206:22 *919:A 31.2643 
5 *206:22 *920:B1 33.2107 
6 *206:20 *923:A1 18.8536 
7 *206:18 *902:B 48.5857 
*END

*D_NET *207 0.0156249
*CONN
*I *902:A I *D sky130_fd_sc_hd__and4_4
*I *923:B1 I *D sky130_fd_sc_hd__a31o_1
*I *1057:Q O *D sky130_fd_sc_hd__dfrtp_1
*CAP
1 *902:A 0
2 *923:B1 0.000228109
3 *1057:Q 0.00243413
4 *207:45 0.00126564
5 *207:18 0.0017425
6 *207:16 0.00268287
7 *207:16 *1040:A 0.000155275
8 *207:16 *1097:A 0.000302637
9 *207:16 *214:41 8.27238e-06
10 *894:B *207:45 8.26607e-05
11 *895:B1 *207:45 5.36293e-05
12 *902:B *207:45 0.0014839
13 *910:B *207:45 0.000371458
14 *919:C *207:18 0.00010026
15 *919:C *207:45 4.37014e-05
16 *920:A1 *923:B1 2.12005e-05
17 *923:A1 *923:B1 0.00035119
18 *983:C *207:45 2.06112e-05
19 *1002:A *207:18 3.25078e-05
20 *1057:D *207:16 7.4662e-05
21 *1057:RESET_B *207:16 0.000135977
22 *1063:D *207:45 0
23 *1078:CLK *207:16 0.000152013
24 *1080:RESET_B *207:18 0.000289204
25 *1080:RESET_B *207:45 4.00602e-05
26 *80:14 *207:45 2.06178e-05
27 *108:16 *207:18 0.000128168
28 *110:12 *207:45 0.000927102
29 *139:14 *207:16 2.07517e-05
30 *167:43 *207:18 4.27878e-05
31 *170:16 *207:16 2.91817e-05
32 *172:10 *207:18 8.63416e-05
33 *177:57 *207:16 0.000935321
34 *177:117 *207:18 0.000126446
35 *181:44 *207:16 5.19211e-05
36 *194:16 *207:45 0.00112881
37 *206:20 *207:45 5.49657e-05
*RES
1 *1057:Q *207:16 46.2464 
2 *207:16 *207:18 7.71429 
3 *207:18 *923:B1 18.05 
4 *207:18 *207:45 43.8571 
5 *207:45 *902:A 9.3 
*END

*D_NET *208 0.028953
*CONN
*I *932:B I *D sky130_fd_sc_hd__and3_1
*I *928:A I *D sky130_fd_sc_hd__or2_1
*I *903:D I *D sky130_fd_sc_hd__and4_1
*I *927:A I *D sky130_fd_sc_hd__nand2_1
*I *931:A1 I *D sky130_fd_sc_hd__a21oi_1
*I *1058:Q O *D sky130_fd_sc_hd__dfrtp_2
*CAP
1 *932:B 0.00047921
2 *928:A 2.15666e-05
3 *903:D 0.000427273
4 *927:A 0.000505339
5 *931:A1 0.00229589
6 *1058:Q 0
7 *208:93 0.000761887
8 *208:34 0.00307697
9 *208:28 0.00178554
10 *208:8 0.00255661
11 *208:4 0.00088065
12 *903:D *903:C 9.60939e-05
13 *903:D *219:16 9.41642e-05
14 *931:A1 *934:A 0
15 *931:A1 *213:12 0
16 *932:B *214:62 6.24758e-05
17 *208:28 *214:98 0.000572289
18 *895:A2 *927:A 0.000501601
19 *910:C *931:A1 0.000278647
20 *917:A *932:B 0.000330436
21 *917:B *932:B 7.47248e-05
22 *928:B *932:B 5.49489e-05
23 *929:A *208:28 5.2319e-05
24 *929:B *927:A 0.00183202
25 *929:C *208:28 0.000132466
26 *929:C *208:34 0.000332219
27 *957:A *932:B 2.82119e-05
28 *960:C *208:28 1.54142e-05
29 *977:A *927:A 5.80858e-06
30 *983:A *931:A1 0
31 *983:B *931:A1 0.000321943
32 *1006:C *903:D 0.000393787
33 *1010:A *903:D 0.000177467
34 *1010:A *208:28 0.000328321
35 *1012:B *208:28 1.72189e-05
36 *1013:A *208:8 4.35597e-05
37 *1019:A *927:A 0
38 *1058:RESET_B *208:8 0.000130581
39 *1058:RESET_B *208:93 4.19877e-05
40 *1075:D *927:A 3.19834e-05
41 *1084:RESET_B *208:28 0.000436351
42 *1090:A *208:28 8.39516e-05
43 *1093:A *932:B 0.00010698
44 *1093:A *208:93 5.20751e-05
45 *20:58 *208:8 0.000389665
46 *20:152 *208:28 0.000257619
47 *20:195 *927:A 6.86249e-05
48 *23:24 *927:A 2.57188e-05
49 *23:24 *208:28 3.99243e-05
50 *23:24 *208:34 7.00374e-05
51 *67:16 *208:28 0
52 *78:30 *208:34 8.45113e-05
53 *85:42 *927:A 1.94879e-05
54 *85:42 *208:34 0.000107581
55 *90:16 *208:28 0.000171969
56 *92:14 *927:A 0.00114128
57 *93:110 *208:93 0
58 *93:126 *208:93 2.08116e-05
59 *103:52 *208:93 1.03904e-05
60 *116:34 *931:A1 0.000103814
61 *120:14 *208:28 0.000261767
62 *122:18 *208:28 5.49657e-05
63 *126:132 *208:34 0.000121411
64 *144:18 *208:28 0.000734002
65 *169:18 *903:D 0.000779128
66 *169:18 *208:28 4.02969e-05
67 *183:61 *208:28 0.00109527
68 *183:77 *928:A 3.41517e-06
69 *183:81 *208:93 0.000121083
70 *183:121 *932:B 0.000251114
71 *183:121 *208:93 9.83442e-05
72 *184:88 *208:28 0.000508325
73 *189:33 *931:A1 1.54393e-05
74 *189:63 *932:B 0.000417836
75 *190:52 *208:8 8.25843e-06
76 *195:22 *931:A1 0.00058122
77 *195:28 *927:A 0.000117323
78 *196:108 *931:A1 0.00181141
79 *201:34 *927:A 0
*RES
1 *1058:Q *208:4 9.3 
2 *208:4 *208:8 14.4821 
3 *208:8 *208:28 49.0089 
4 *208:28 *208:34 6.85714 
5 *208:34 *931:A1 27.491 
6 *208:34 *927:A 44.4875 
7 *208:8 *903:D 25.7286 
8 *208:4 *208:93 14.0714 
9 *208:93 *928:A 9.72857 
10 *208:93 *932:B 29.0679 
*END

*D_NET *209 0.017128
*CONN
*I *931:B1 I *D sky130_fd_sc_hd__a21oi_1
*I *932:A I *D sky130_fd_sc_hd__and3_1
*I *903:C I *D sky130_fd_sc_hd__and4_1
*I *1059:Q O *D sky130_fd_sc_hd__dfrtp_1
*CAP
1 *931:B1 0.000643245
2 *932:A 1.69531e-05
3 *903:C 0.00131205
4 *1059:Q 0.000158423
5 *209:66 0.00175948
6 *209:24 0.00161457
7 *209:18 0.00156022
8 *903:C *219:16 0.000711919
9 *932:A *214:62 5.33005e-05
10 *209:24 *214:62 2.23106e-05
11 *209:66 *214:62 0.000178961
12 *209:66 *214:72 2.51497e-05
13 *894:A *931:B1 3.97677e-05
14 *894:B *931:B1 5.52302e-05
15 *903:D *903:C 9.60939e-05
16 *904:B *903:C 0.00055613
17 *906:D *903:C 0
18 *917:B *903:C 0.000446753
19 *931:A2 *931:B1 0.000508798
20 *932:C *932:A 5.33005e-05
21 *936:B *209:66 0
22 *950:B *903:C 0.000180079
23 *959:B *903:C 0
24 *990:A *209:18 0.000213973
25 *1005:A *903:C 1.1574e-05
26 *1015:A1 *903:C 0.000487381
27 *1039:A *209:66 6.36446e-05
28 *1071:D *209:66 0.000925155
29 *66:14 *931:B1 0.000163645
30 *90:16 *209:66 0.000679334
31 *93:20 *931:B1 9.76689e-05
32 *94:10 *903:C 0.000138606
33 *116:34 *931:B1 7.20217e-06
34 *137:31 *903:C 6.36172e-05
35 *137:31 *209:24 0.000740247
36 *137:31 *209:66 0.000430009
37 *140:28 *903:C 0.0003011
38 *142:16 *209:66 0
39 *167:43 *903:C 0.000126622
40 *176:135 *209:66 0.000377315
41 *181:10 *209:24 0.000110839
42 *181:12 *209:24 0.000231807
43 *181:18 *903:C 6.36172e-05
44 *181:18 *209:24 0.000147751
45 *181:82 *209:24 0.000201246
46 *181:92 *209:18 0.000115165
47 *191:22 *209:66 0.000163952
48 *199:60 *931:B1 0.00127378
*RES
1 *1059:Q *209:18 17.9429 
2 *209:18 *209:24 10.0089 
3 *209:24 *903:C 42.4122 
4 *209:24 *932:A 14.3357 
5 *209:18 *209:66 33.5268 
6 *209:66 *931:B1 27.5143 
*END

*D_NET *210 0.0335354
*CONN
*I *934:A I *D sky130_fd_sc_hd__or2_1
*I *903:B I *D sky130_fd_sc_hd__and4_1
*I *935:A I *D sky130_fd_sc_hd__nand2_1
*I *1060:Q O *D sky130_fd_sc_hd__dfrtp_2
*CAP
1 *934:A 0.00285488
2 *903:B 0.00204071
3 *935:A 0.000738945
4 *1060:Q 0
5 *210:34 0.00712081
6 *210:4 0.00719604
7 *903:B *903:A 2.09655e-05
8 *903:B *213:14 0.000436628
9 *903:B *213:28 0.000407611
10 *210:34 *1095:A 0.000184027
11 *210:34 *213:14 6.7155e-05
12 *210:34 *217:14 0.000293313
13 *910:C *934:A 0.000278293
14 *925:A *934:A 0.000316464
15 *925:A *210:34 0.000148242
16 *927:B *934:A 0
17 *931:A1 *934:A 0
18 *934:B *934:A 4.6025e-06
19 *935:B *935:A 0
20 *942:B *934:A 0.000107024
21 *942:C *934:A 0.00356813
22 *970:A *934:A 0.000280571
23 *983:C *934:A 0.000176541
24 *988:B *934:A 0.000138505
25 *993:B *934:A 2.19495e-05
26 *1010:A *903:B 1.8038e-05
27 *1011:A *210:34 4.40596e-05
28 *1068:D *935:A 0
29 *1080:D *935:A 0
30 *1080:D *210:34 0
31 *27:26 *934:A 8.94491e-05
32 *74:14 *903:B 0.00371245
33 *74:14 *210:34 0
34 *83:28 *934:A 4.41666e-05
35 *85:42 *934:A 3.35325e-05
36 *87:44 *934:A 8.19451e-05
37 *101:18 *934:A 4.69925e-05
38 *102:45 *934:A 0
39 *102:45 *210:34 9.78012e-06
40 *116:34 *934:A 0.000168616
41 *123:12 *210:34 0
42 *161:14 *934:A 0.000573132
43 *173:90 *210:34 3.28986e-05
44 *195:22 *934:A 0.00180184
45 *200:35 *934:A 0.000477142
*RES
1 *1060:Q *210:4 9.3 
2 *210:4 *210:34 41.6646 
3 *210:34 *935:A 26.2732 
4 *210:34 *903:B 27.373 
5 *210:4 *934:A 40.095 
*END

*D_NET *211 0.012554
*CONN
*I *938:A I *D sky130_fd_sc_hd__inv_2
*I *903:A I *D sky130_fd_sc_hd__and4_1
*I *1061:Q O *D sky130_fd_sc_hd__dfrtp_1
*CAP
1 *938:A 0.00116988
2 *903:A 0.00085397
3 *1061:Q 0.0005028
4 *211:10 0.00252665
5 *938:A *1052:A 0.000796257
6 *938:A *215:18 0.000556706
7 *903:B *903:A 2.09655e-05
8 *1003:A *938:A 4.07654e-05
9 *1003:B *938:A 0.00245508
10 *1010:A *903:A 0
11 *1012:B *903:A 7.71875e-05
12 *1013:A *903:A 0.000161561
13 *1056:RESET_B *903:A 2.5912e-05
14 *1066:CLK *938:A 2.59355e-05
15 *1066:D *903:A 9.54798e-06
16 *1066:D *211:10 0.000567694
17 *37:10 *938:A 0.00104969
18 *46:10 *211:10 0.000303965
19 *122:18 *903:A 7.71001e-05
20 *122:18 *211:10 0.000565348
21 *155:39 *211:10 1.98839e-05
22 *159:22 *903:A 9.67197e-05
23 *162:28 *938:A 0.000101839
24 *183:61 *938:A 7.8379e-05
25 *184:66 *903:A 0.000383588
26 *195:73 *903:A 8.65622e-05
27 *196:18 *903:A 0
*RES
1 *1061:Q *211:10 24.925 
2 *211:10 *903:A 31.5321 
3 *211:10 *938:A 47.1929 
*END

*D_NET *212 0.023761
*CONN
*I *944:A1 I *D sky130_fd_sc_hd__a31o_1
*I *909:A1 I *D sky130_fd_sc_hd__o31a_1
*I *941:A I *D sky130_fd_sc_hd__nand2_1
*I *940:A I *D sky130_fd_sc_hd__or2_1
*I *945:B I *D sky130_fd_sc_hd__and4_2
*I *1062:Q O *D sky130_fd_sc_hd__dfrtp_2
*CAP
1 *944:A1 0.000388182
2 *909:A1 0
3 *941:A 0.00111424
4 *940:A 0.000172322
5 *945:B 0.000444463
6 *1062:Q 0
7 *212:58 0.00152259
8 *212:37 0.00223546
9 *212:29 0.00204062
10 *212:25 0.00127792
11 *212:6 0.000948377
12 *941:A *899:A1 0.000628812
13 *941:A *214:72 0.00018077
14 *945:B *945:A 0.000696795
15 *945:B *213:28 0.000254042
16 *909:B1 *212:37 2.89016e-05
17 *941:B *941:A 0.00134095
18 *944:A3 *944:A1 1.97695e-05
19 *945:D *945:B 6.46424e-05
20 *968:A *944:A1 0.000315887
21 *1005:A *212:25 1.18064e-05
22 *1034:A *945:B 0.000477606
23 *1039:A *941:A 0.00026353
24 *1062:RESET_B *945:B 0.000216915
25 *1066:RESET_B *212:58 0.000340962
26 *1069:RESET_B *212:58 0.00014204
27 *1084:RESET_B *212:58 0.000143694
28 *35:10 *944:A1 0.000110479
29 *35:10 *945:B 9.11806e-06
30 *35:10 *212:25 5.28195e-05
31 *67:16 *941:A 0.000447988
32 *84:58 *941:A 0.000586626
33 *87:69 *945:B 0.000118922
34 *87:69 *212:25 0.000176203
35 *93:50 *944:A1 0.000181762
36 *96:12 *941:A 0.000188622
37 *100:10 *212:29 2.61099e-05
38 *133:79 *944:A1 0.000548302
39 *133:79 *212:25 0.000890117
40 *143:8 *944:A1 5.33005e-05
41 *156:14 *945:B 0.000109998
42 *169:18 *940:A 6.18969e-06
43 *176:71 *212:29 0.000730798
44 *176:71 *212:37 7.09373e-05
45 *181:100 *212:58 1.70398e-05
46 *183:121 *941:A 0.00038958
47 *185:27 *941:A 0.000346932
48 *185:43 *940:A 5.33005e-05
49 *185:43 *941:A 5.33005e-05
50 *186:18 *940:A 0.000127557
51 *186:18 *212:37 2.93957e-05
52 *193:30 *212:37 0.0017681
53 *194:49 *212:25 0.000904602
54 *197:41 *940:A 0.000282485
55 *197:41 *212:37 7.40526e-05
56 *203:48 *941:A 0.000135028
*RES
1 *1062:Q *212:6 13.8 
2 *212:6 *945:B 28.1929 
3 *212:6 *212:25 16.875 
4 *212:25 *212:29 12.4286 
5 *212:29 *212:37 26.5179 
6 *212:37 *940:A 18.1036 
7 *212:37 *212:58 19.6786 
8 *212:58 *941:A 41.0679 
9 *212:29 *909:A1 9.3 
10 *212:25 *944:A1 24.7464 
*END

*D_NET *213 0.0278804
*CONN
*I *906:C I *D sky130_fd_sc_hd__or4_1
*I *944:B1 I *D sky130_fd_sc_hd__a31o_1
*I *945:A I *D sky130_fd_sc_hd__and4_2
*I *1063:Q O *D sky130_fd_sc_hd__dfrtp_2
*CAP
1 *906:C 4.20826e-05
2 *944:B1 0.000811209
3 *945:A 0.000179259
4 *1063:Q 8.5642e-05
5 *213:28 0.00373993
6 *213:14 0.00444481
7 *213:12 0.0030072
8 *213:8 0.00143959
9 an[1] *213:12 6.71264e-05
10 an[3] *213:12 2.18087e-05
11 an[4] *213:12 2.18087e-05
12 an[5] *213:12 2.22043e-05
13 an[6] *213:12 4.70981e-05
14 seg[1] *213:12 2.18087e-05
15 seg[2] *213:12 2.22043e-05
16 *903:B *213:14 0.000436628
17 *903:B *213:28 0.000407611
18 *906:D *906:C 2.06112e-05
19 *908:B *944:B1 9.11365e-06
20 *920:A2 *213:12 2.71138e-05
21 *931:A1 *213:12 0
22 *944:A3 *944:B1 0.000500307
23 *945:B *945:A 0.000696795
24 *945:B *213:28 0.000254042
25 *945:D *945:A 0.00048068
26 *959:B *906:C 4.46325e-05
27 *1005:B *944:B1 0.000816107
28 *1062:RESET_B *213:28 0.00013748
29 *1078:RESET_B *944:B1 0.000209385
30 *21:16 *213:12 6.55147e-05
31 *22:14 *944:B1 0.0010321
32 *35:10 *213:28 0.000139537
33 *41:12 *213:12 0
34 *62:14 *945:A 5.71472e-05
35 *69:10 *213:12 0.00148385
36 *70:16 *213:14 0.000355045
37 *70:16 *213:28 0.00035604
38 *73:12 *944:B1 0
39 *74:14 *213:12 0
40 *74:14 *213:14 2.84306e-05
41 *74:14 *213:28 1.0446e-05
42 *76:14 *213:28 0.00247384
43 *80:18 *944:B1 0.000212417
44 *97:8 *906:C 9.83388e-05
45 *102:51 *213:12 0.00245492
46 *116:34 *213:12 0
47 *152:28 *213:28 8.94556e-05
48 *166:59 *213:28 0.000605251
49 *167:43 *213:14 0
50 *189:63 *906:C 1.0946e-05
51 *190:20 *906:C 4.96113e-05
52 *195:73 *213:28 0.000226921
53 *199:18 *213:28 3.85293e-06
54 *204:43 *213:28 0
55 *205:12 *213:12 4.5258e-05
56 *210:34 *213:14 6.7155e-05
*RES
1 *1063:Q *213:8 14.7464 
2 *213:8 *213:12 48.6154 
3 *213:12 *213:14 4.22687 
4 *213:14 *213:28 19.604 
5 *213:28 *945:A 15.9964 
6 *213:28 *944:B1 44.5321 
7 *213:14 *906:C 18.7368 
*END

*D_NET *214 0.0320051
*CONN
*I *899:A1 I *D sky130_fd_sc_hd__o21a_1
*I *895:A1 I *D sky130_fd_sc_hd__a211oi_1
*I *898:A1 I *D sky130_fd_sc_hd__a21oi_1
*I *896:A1 I *D sky130_fd_sc_hd__a21oi_1
*I *889:A I *D sky130_fd_sc_hd__and3_1
*I *1053:Q O *D sky130_fd_sc_hd__dfrtp_4
*CAP
1 *899:A1 0.000276914
2 *895:A1 0.00086813
3 *898:A1 0
4 *896:A1 0.000145161
5 *889:A 0
6 *1053:Q 0
7 *214:98 0.000703513
8 *214:72 0.0026651
9 *214:62 0.00193936
10 *214:43 0.000753356
11 *214:41 0.00199414
12 *214:16 0.00152993
13 *214:4 0.00348486
14 *889:C *214:16 7.99507e-05
15 *895:A2 *895:A1 0.000312767
16 *895:C1 *895:A1 2.41665e-05
17 *898:A2 *214:98 0.000180495
18 *898:B1 *214:98 5.33005e-05
19 *899:B1 *899:A1 0.000221634
20 *917:B *214:43 3.45371e-05
21 *917:B *214:62 4.58194e-05
22 *917:C *896:A1 2.96677e-05
23 *929:C *895:A1 0.000722289
24 *932:A *214:62 5.33005e-05
25 *932:B *214:62 6.24758e-05
26 *932:C *896:A1 5.49489e-05
27 *932:C *214:62 0.000195548
28 *936:C *214:62 0.000138491
29 *941:A *899:A1 0.000628812
30 *941:A *214:72 0.00018077
31 *951:C *899:A1 8.6229e-06
32 *960:A *214:98 9.41642e-05
33 *960:B *214:98 9.35794e-06
34 *960:C *214:98 0.000796869
35 *990:C *214:62 0.000186134
36 *997:A *214:16 0.000260707
37 *1010:B *214:41 7.6644e-05
38 *1039:A *214:62 5.41794e-05
39 *1053:RESET_B *214:16 5.52611e-05
40 *1067:RESET_B *214:98 0.000206432
41 *1071:CLK *214:72 2.59355e-05
42 *1071:D *214:72 3.47641e-06
43 *1074:CLK *214:16 4.05819e-05
44 *1078:CLK *214:41 6.05161e-06
45 *1090:A *214:98 9.25014e-06
46 *20:58 *214:16 0.000311295
47 *20:58 *214:41 0.000577495
48 *20:152 *214:98 7.34839e-05
49 *28:18 *214:72 9.18273e-05
50 *38:26 *214:16 0.000135073
51 *42:12 *899:A1 0.000142971
52 *44:10 *214:72 0.00012051
53 *66:14 *895:A1 7.55769e-05
54 *81:16 *214:16 8.44271e-06
55 *84:12 *214:16 7.81939e-05
56 *84:58 *899:A1 0.000639319
57 *84:58 *214:72 0.000178847
58 *85:16 *895:A1 0.00103143
59 *89:16 *214:41 0.000979476
60 *90:16 *214:98 0.000113821
61 *95:63 *899:A1 9.91086e-05
62 *103:24 *214:72 6.57032e-05
63 *103:24 *214:98 4.11486e-05
64 *106:14 *896:A1 0.000174917
65 *106:14 *214:41 0.000180448
66 *106:14 *214:43 3.45371e-05
67 *112:18 *214:41 0.000300395
68 *112:75 *214:98 7.69776e-06
69 *117:47 *214:98 6.73691e-05
70 *119:41 *214:62 3.69047e-06
71 *120:14 *214:98 0.00018013
72 *124:12 *214:98 2.09826e-05
73 *130:12 *899:A1 1.41225e-05
74 *137:31 *214:72 0.000724146
75 *159:22 *214:98 1.90936e-05
76 *167:18 *214:72 0.000114511
77 *168:26 *214:41 0.00030211
78 *169:18 *214:41 7.83659e-05
79 *170:16 *214:41 0.000215894
80 *179:14 *214:16 9.15842e-06
81 *179:16 *214:16 0.00020992
82 *179:18 *214:16 0.000374363
83 *179:22 *214:16 0.000735859
84 *179:35 *214:16 4.04691e-06
85 *181:10 *214:62 0.000119461
86 *181:12 *214:62 0.000241895
87 *181:18 *214:62 0.000170871
88 *181:82 *214:62 0.000208876
89 *182:17 *214:72 0.000100926
90 *190:52 *214:16 0.000201095
91 *190:52 *214:41 0.000303252
92 *191:22 *214:72 0.000204411
93 *191:33 *214:72 0.000402297
94 *191:43 *214:72 0.000307728
95 *192:43 *214:62 0.000429044
96 *192:86 *214:98 6.48083e-05
97 *194:16 *899:A1 0.00022459
98 *194:57 *214:16 0.000131204
99 *194:61 *214:16 0.000207108
100 *196:10 *214:98 1.94879e-05
101 *204:22 *214:16 0.000112429
102 *207:16 *214:41 8.27238e-06
103 *208:28 *214:98 0.000572289
104 *209:24 *214:62 2.23106e-05
105 *209:66 *214:62 0.000178961
106 *209:66 *214:72 2.51497e-05
*RES
1 *1053:Q *214:4 9.3 
2 *214:4 *214:16 42.9643 
3 *214:16 *889:A 9.3 
4 *214:4 *214:41 49.7857 
5 *214:41 *214:43 1.03571 
6 *214:43 *896:A1 12.8536 
7 *214:43 *214:62 25.3929 
8 *214:62 *214:72 34.125 
9 *214:72 *214:98 40.7624 
10 *214:98 *898:A1 9.3 
11 *214:72 *895:A1 36.7643 
12 *214:62 *899:A1 28.7107 
*END

*D_NET *215 0.0239291
*CONN
*I *1052:A I *D sky130_fd_sc_hd__inv_2
*I *1029:A I *D sky130_fd_sc_hd__clkbuf_8
*I *1051:A I *D sky130_fd_sc_hd__inv_2
*I *1040:A I *D sky130_fd_sc_hd__buf_4
*I *1018:A I *D sky130_fd_sc_hd__buf_4
*I *1094:X O *D sky130_fd_sc_hd__buf_2
*CAP
1 *1052:A 0.000605467
2 *1029:A 0
3 *1051:A 0
4 *1040:A 0.00049089
5 *1018:A 2.99504e-05
6 *1094:X 0.00115879
7 *215:40 0.00102098
8 *215:32 0.00109976
9 *215:22 0.00125538
10 *215:18 0.00257532
11 *215:12 0.00247289
12 *1040:A *220:10 0.000193245
13 *215:40 *1014:B1_N 0.000154557
14 *215:40 *219:12 3.97677e-05
15 *904:B *1040:A 0.000474756
16 *904:B *215:40 5.20298e-05
17 *907:D *215:18 0.00145761
18 *909:A3 *215:22 0
19 *912:A2 *215:12 9.71197e-05
20 *912:A2 *215:18 0.000150481
21 *938:A *1052:A 0.000796257
22 *938:A *215:18 0.000556706
23 *974:B *215:32 3.53804e-05
24 *986:B *215:32 0
25 *1014:A1 *215:40 0.000182605
26 *1016:A *215:32 2.06112e-05
27 *1064:D *215:18 0.00169251
28 *1064:RESET_B *215:18 0
29 *1069:RESET_B *1040:A 0.000889217
30 *1069:RESET_B *215:40 5.05056e-05
31 *1082:RESET_B *1018:A 9.41642e-05
32 *1082:RESET_B *215:32 0.000162935
33 *1082:RESET_B *215:40 4.35725e-05
34 *48:20 *215:18 0
35 *60:16 *215:12 0.000146567
36 *133:30 *215:32 6.0964e-05
37 *133:30 *215:40 0.00186637
38 *148:10 *215:32 0
39 *175:16 *1018:A 9.41642e-05
40 *175:16 *215:40 0.00127723
41 *175:103 *215:18 5.99954e-05
42 *176:61 *215:22 0.00102362
43 *176:61 *215:32 3.10885e-05
44 *176:71 *215:12 0.000137983
45 *181:44 *1040:A 0.000305189
46 *188:24 *215:32 0.000475443
47 *200:16 *215:12 0.000441731
48 *207:16 *1040:A 0.000155275
*RES
1 *1094:X *215:12 32.55 
2 *215:12 *215:18 37.1071 
3 *215:18 *215:22 18.2857 
4 *215:22 *215:32 16.7679 
5 *215:32 *215:40 24.1607 
6 *215:40 *1018:A 14.7464 
7 *215:40 *1040:A 28.7643 
8 *215:32 *1051:A 9.3 
9 *215:22 *1029:A 13.8 
10 *215:18 *1052:A 17.8536 
*END

*D_NET *216 0.0025138
*CONN
*I *1095:A I *D sky130_fd_sc_hd__buf_1
*I *1085:X O *D sky130_fd_sc_hd__clkbuf_1
*CAP
1 *1095:A 0.000840246
2 *1085:X 0.000840246
3 *1095:A *217:14 0.000360989
4 *920:A1 *1095:A 7.2007e-05
5 *920:B1 *1095:A 7.02461e-05
6 *1080:D *1095:A 0
7 *20:104 *1095:A 0.000146036
8 *74:14 *1095:A 0
9 *108:16 *1095:A 0
10 *210:34 *1095:A 0.000184027
*RES
1 *1085:X *1095:A 44.1 
*END

*D_NET *217 0.00610477
*CONN
*I *1096:A I *D sky130_fd_sc_hd__buf_1
*I *1011:Y O *D sky130_fd_sc_hd__nor2_1
*CAP
1 *1096:A 0.000299203
2 *1011:Y 0.00126081
3 *217:14 0.00156001
4 *920:A1 *217:14 0.000222616
5 *925:A *217:14 0.000669604
6 *1011:A *217:14 0.000180072
7 *1080:D *217:14 0
8 *1095:A *217:14 0.000360989
9 *74:14 *217:14 0
10 *117:37 *217:14 0.000519896
11 *123:12 *217:14 0
12 *173:90 *217:14 0.000256896
13 *199:78 *217:14 0.000481364
14 *210:34 *217:14 0.000293313
*RES
1 *1011:Y *217:14 45.6036 
2 *217:14 *1096:A 18.0321 
*END

*D_NET *218 0.00647718
*CONN
*I *1097:A I *D sky130_fd_sc_hd__buf_1
*I *1015:Y O *D sky130_fd_sc_hd__a21oi_1
*CAP
1 *1097:A 0.000629519
2 *1015:Y 0.00137438
3 *218:16 0.0020039
4 *218:16 *220:37 0.000134497
5 *921:A *218:16 0.000228876
6 *965:A1 *218:16 1.47872e-05
7 *965:B1 *218:16 0.000113426
8 *1057:D *1097:A 0.000755541
9 *50:28 *218:16 5.7836e-06
10 *70:16 *218:16 0.000307969
11 *175:159 *218:16 0
12 *176:44 *218:16 0
13 *202:30 *218:16 0.00060586
14 *207:16 *1097:A 0.000302637
*RES
1 *1015:Y *218:16 43.05 
2 *218:16 *1097:A 23.3893 
*END

*D_NET *219 0.010909
*CONN
*I *1098:A I *D sky130_fd_sc_hd__buf_1
*I *1085:A I *D sky130_fd_sc_hd__clkbuf_1
*I *1014:Y O *D sky130_fd_sc_hd__a21boi_1
*CAP
1 *1098:A 0.0003506
2 *1085:A 0
3 *1014:Y 0.000366287
4 *219:16 0.00178881
5 *219:12 0.0018045
6 *219:12 *1014:B1_N 5.66971e-05
7 *903:C *219:16 0.000711919
8 *903:D *219:16 9.41642e-05
9 *950:A *219:16 0.00118489
10 *950:B *219:16 0.000256565
11 *975:A *219:12 9.97363e-06
12 *980:C *219:16 8.55871e-05
13 *1082:RESET_B *219:12 0.000137983
14 *45:14 *219:12 0.000545572
15 *94:10 *219:16 0.00015946
16 *130:12 *219:16 0.000137427
17 *176:44 *219:16 0.0029353
18 *199:18 *219:12 0.000243465
19 *215:40 *219:12 3.97677e-05
*RES
1 *1014:Y *219:12 27.0679 
2 *219:12 *219:16 39.9821 
3 *219:16 *1085:A 9.3 
4 *219:16 *1098:A 14.7643 
*END

*D_NET *220 0.0130094
*CONN
*I *1099:A I *D sky130_fd_sc_hd__buf_1
*I *1014:B1_N I *D sky130_fd_sc_hd__a21boi_1
*I *1013:X O *D sky130_fd_sc_hd__buf_1
*CAP
1 *1099:A 0
2 *1014:B1_N 0.000871485
3 *1013:X 0.000685171
4 *220:37 0.00277476
5 *220:10 0.00433141
6 seg[4] *220:37 1.21955e-05
7 *904:B *220:10 0.000440903
8 *919:A *220:37 1.98839e-05
9 *919:B *220:37 0.000178847
10 *921:A *220:37 1.9079e-05
11 *965:A1 *220:37 4.82865e-05
12 *965:B1 *220:37 5.40148e-05
13 *1015:A2 *220:37 1.10868e-05
14 *1040:A *220:10 0.000193245
15 *1050:A *220:37 0.00013833
16 *1069:RESET_B *220:10 4.0079e-05
17 *1073:RESET_B *220:10 0.000100936
18 *1078:RESET_B *220:10 0.000250795
19 *1082:RESET_B *1014:B1_N 0.00126517
20 *1082:RESET_B *220:37 0.000459781
21 *20:22 *220:10 0
22 *20:50 *220:10 0
23 *53:22 *220:10 2.11068e-05
24 *63:14 *1014:B1_N 5.15925e-05
25 *69:10 *220:37 3.72365e-05
26 *175:16 *1014:B1_N 0.000182804
27 *190:14 *220:10 9.15842e-06
28 *190:20 *220:10 0.000451313
29 *204:8 *1014:B1_N 1.49523e-05
30 *215:40 *1014:B1_N 0.000154557
31 *218:16 *220:37 0.000134497
32 *219:12 *1014:B1_N 5.66971e-05
*RES
1 *1013:X *220:10 33.9071 
2 *220:10 *1014:B1_N 32.9786 
3 *220:10 *220:37 42.8036 
4 *220:37 *1099:A 9.3 
*END

*D_NET *221 0.0199745
*CONN
*I *1100:A I *D sky130_fd_sc_hd__buf_1
*I *1016:Y O *D sky130_fd_sc_hd__inv_2
*CAP
1 *1100:A 0
2 *1016:Y 0.00610289
3 *221:22 0.00610289
4 seg[5] *221:22 1.16198e-05
5 *921:B *221:22 0.000119716
6 *921:C *221:22 0.000169636
7 *939:A1 *221:22 0.00301126
8 *939:A2 *221:22 4.60078e-05
9 *995:A *221:22 0.000224521
10 *997:B *221:22 6.2379e-05
11 *1028:A *221:22 0.000242106
12 *1068:D *221:22 0.000141688
13 *1074:RESET_B *221:22 0
14 *26:16 *221:22 2.83284e-06
15 *63:14 *221:22 0.00298739
16 *121:12 *221:22 0.000333581
17 *126:16 *221:22 0.000161065
18 *126:47 *221:22 0.000254882
*RES
1 *1016:Y *221:22 46.6173 
2 *221:22 *1100:A 9.3 
*END

*D_NET *222 0.0113912
*CONN
*I *1101:A I *D sky130_fd_sc_hd__buf_1
*I *1017:Y O *D sky130_fd_sc_hd__a21oi_1
*CAP
1 *1101:A 0.00237504
2 *1017:Y 0.000794109
3 *222:16 0.0038
4 *222:12 0.00221907
5 seg[6] *1101:A 1.21955e-05
6 *889:B *222:12 0
7 *982:A3 *222:12 0
8 *1024:A *222:12 7.78065e-06
9 *53:22 *222:12 0.000137639
10 *162:54 *222:12 6.23683e-05
11 *183:141 *222:12 0
12 *195:89 *222:12 0
13 *195:89 *222:16 0.001983
*RES
1 *1017:Y *222:12 30.3536 
2 *222:12 *222:16 31.5625 
3 *222:16 *1101:A 46.5589 
*END
