*SPEF "ieee 1481-1999"
*DESIGN "TopModule"
*DATE "22:37:31 Saturday May 24, 2025"
*VENDOR "The OpenROAD Project"
*PROGRAM "OpenROAD"
*VERSION "b16bda7e82721d10566ff7e2b68f1ff0be9f9e38"
*DESIGN_FLOW "NAME_SCOPE LOCAL" "PIN_CAP NONE"
*DIVIDER /
*DELIMITER :
*BUS_DELIMITER []
*T_UNIT 1 NS
*C_UNIT 1 PF
*R_UNIT 1 OHM
*L_UNIT 1 HENRY

*NAME_MAP
*3 net9
*4 net10
*5 net11
*6 net12
*7 net13
*8 net14
*9 net15
*10 net16
*11 clk
*12 rst
*13 seg[0]
*14 seg[1]
*15 seg[2]
*16 seg[3]
*17 seg[4]
*18 seg[5]
*19 seg[6]
*20 _000_
*21 _001_
*22 _002_
*23 _003_
*24 _004_
*25 _005_
*26 _006_
*27 _007_
*28 _008_
*29 _009_
*30 _010_
*31 _011_
*32 _012_
*33 _013_
*34 _014_
*35 _015_
*36 _016_
*37 _017_
*38 _018_
*39 _019_
*40 _020_
*41 _021_
*42 _022_
*43 _023_
*44 _024_
*45 _025_
*46 _026_
*47 _027_
*48 _028_
*49 _029_
*50 _030_
*51 _031_
*52 _032_
*53 _033_
*54 _034_
*55 _035_
*56 _036_
*57 _037_
*58 _038_
*59 _039_
*60 _040_
*61 _041_
*62 _042_
*63 _043_
*64 _044_
*65 _045_
*66 _046_
*67 _047_
*68 _048_
*69 _049_
*70 _050_
*71 _051_
*72 _052_
*73 _053_
*74 _054_
*75 _055_
*76 _056_
*77 _057_
*78 _058_
*79 _059_
*80 _060_
*81 _061_
*82 _062_
*83 _063_
*84 _064_
*85 _065_
*86 _066_
*87 _067_
*88 _068_
*89 _069_
*90 _070_
*91 _071_
*92 _072_
*93 _073_
*94 _074_
*95 _075_
*96 _076_
*97 _077_
*98 _078_
*99 _079_
*100 _080_
*101 _081_
*102 _082_
*103 _083_
*104 _084_
*105 _085_
*106 _086_
*107 _087_
*108 _088_
*109 _089_
*110 _090_
*111 _091_
*112 _092_
*113 _093_
*114 _094_
*115 _095_
*116 _096_
*117 _097_
*118 _098_
*119 _099_
*120 _100_
*121 _101_
*122 _102_
*123 _103_
*124 _104_
*125 _105_
*126 _106_
*127 _107_
*128 _108_
*129 _109_
*130 _110_
*131 _111_
*132 _112_
*133 _113_
*134 _114_
*135 _115_
*136 _116_
*137 _117_
*138 _118_
*139 _119_
*140 _120_
*141 _121_
*142 _122_
*143 _123_
*144 _124_
*145 _125_
*146 _126_
*147 _127_
*148 _128_
*149 _129_
*150 _130_
*151 _131_
*152 _132_
*153 _133_
*154 _134_
*155 _135_
*156 _136_
*157 _137_
*158 _138_
*159 _139_
*160 _140_
*161 _141_
*162 _142_
*163 _143_
*164 _144_
*165 _145_
*166 _146_
*167 _147_
*168 _148_
*169 _149_
*170 _150_
*171 _151_
*172 _152_
*173 _153_
*174 _154_
*175 _155_
*176 _156_
*177 _157_
*178 clknet_0_clk
*179 clknet_2_0__leaf_clk
*180 clknet_2_1__leaf_clk
*181 clknet_2_2__leaf_clk
*182 clknet_2_3__leaf_clk
*183 counter\.count\[0\]
*184 counter\.count\[1\]
*185 counter\.count\[2\]
*186 counter\.count\[3\]
*187 counter\.one_second_counter\[0\]
*188 counter\.one_second_counter\[10\]
*189 counter\.one_second_counter\[11\]
*190 counter\.one_second_counter\[12\]
*191 counter\.one_second_counter\[13\]
*192 counter\.one_second_counter\[14\]
*193 counter\.one_second_counter\[15\]
*194 counter\.one_second_counter\[16\]
*195 counter\.one_second_counter\[17\]
*196 counter\.one_second_counter\[18\]
*197 counter\.one_second_counter\[19\]
*198 counter\.one_second_counter\[1\]
*199 counter\.one_second_counter\[20\]
*200 counter\.one_second_counter\[21\]
*201 counter\.one_second_counter\[22\]
*202 counter\.one_second_counter\[23\]
*203 counter\.one_second_counter\[24\]
*204 counter\.one_second_counter\[25\]
*205 counter\.one_second_counter\[26\]
*206 counter\.one_second_counter\[2\]
*207 counter\.one_second_counter\[3\]
*208 counter\.one_second_counter\[4\]
*209 counter\.one_second_counter\[5\]
*210 counter\.one_second_counter\[6\]
*211 counter\.one_second_counter\[7\]
*212 counter\.one_second_counter\[8\]
*213 counter\.one_second_counter\[9\]
*214 counter\.one_second_enable
*215 net1
*216 net2
*217 net3
*218 net4
*219 net5
*220 net6
*221 net7
*222 net8
*223 ANTENNA_1
*224 ANTENNA_2
*225 ANTENNA_3
*226 FILLER_0_0_110
*227 FILLER_0_0_113
*228 FILLER_0_0_125
*229 FILLER_0_0_137
*230 FILLER_0_0_141
*231 FILLER_0_0_15
*232 FILLER_0_0_153
*233 FILLER_0_0_165
*234 FILLER_0_0_169
*235 FILLER_0_0_181
*236 FILLER_0_0_27
*237 FILLER_0_0_29
*238 FILLER_0_0_3
*239 FILLER_0_0_45
*240 FILLER_0_0_53
*241 FILLER_0_0_57
*242 FILLER_0_0_67
*243 FILLER_0_0_79
*244 FILLER_0_0_83
*245 FILLER_0_0_85
*246 FILLER_0_0_98
*247 FILLER_0_10_105
*248 FILLER_0_10_110
*249 FILLER_0_10_118
*250 FILLER_0_10_141
*251 FILLER_0_10_15
*252 FILLER_0_10_153
*253 FILLER_0_10_165
*254 FILLER_0_10_177
*255 FILLER_0_10_185
*256 FILLER_0_10_27
*257 FILLER_0_10_29
*258 FILLER_0_10_3
*259 FILLER_0_10_41
*260 FILLER_0_10_45
*261 FILLER_0_10_69
*262 FILLER_0_10_81
*263 FILLER_0_10_85
*264 FILLER_0_10_97
*265 FILLER_0_11_107
*266 FILLER_0_11_111
*267 FILLER_0_11_113
*268 FILLER_0_11_130
*269 FILLER_0_11_142
*270 FILLER_0_11_146
*271 FILLER_0_11_15
*272 FILLER_0_11_153
*273 FILLER_0_11_162
*274 FILLER_0_11_169
*275 FILLER_0_11_178
*276 FILLER_0_11_27
*277 FILLER_0_11_3
*278 FILLER_0_11_39
*279 FILLER_0_11_54
*280 FILLER_0_11_84
*281 FILLER_0_11_9
*282 FILLER_0_12_105
*283 FILLER_0_12_113
*284 FILLER_0_12_139
*285 FILLER_0_12_141
*286 FILLER_0_12_15
*287 FILLER_0_12_153
*288 FILLER_0_12_165
*289 FILLER_0_12_177
*290 FILLER_0_12_181
*291 FILLER_0_12_188
*292 FILLER_0_12_26
*293 FILLER_0_12_29
*294 FILLER_0_12_3
*295 FILLER_0_12_41
*296 FILLER_0_12_53
*297 FILLER_0_12_77
*298 FILLER_0_12_83
*299 FILLER_0_12_90
*300 FILLER_0_12_98
*301 FILLER_0_13_107
*302 FILLER_0_13_111
*303 FILLER_0_13_133
*304 FILLER_0_13_141
*305 FILLER_0_13_148
*306 FILLER_0_13_154
*307 FILLER_0_13_166
*308 FILLER_0_13_169
*309 FILLER_0_13_21
*310 FILLER_0_13_3
*311 FILLER_0_13_33
*312 FILLER_0_13_45
*313 FILLER_0_13_53
*314 FILLER_0_13_57
*315 FILLER_0_13_69
*316 FILLER_0_13_75
*317 FILLER_0_13_79
*318 FILLER_0_13_83
*319 FILLER_0_14_112
*320 FILLER_0_14_125
*321 FILLER_0_14_136
*322 FILLER_0_14_141
*323 FILLER_0_14_15
*324 FILLER_0_14_153
*325 FILLER_0_14_165
*326 FILLER_0_14_177
*327 FILLER_0_14_183
*328 FILLER_0_14_27
*329 FILLER_0_14_29
*330 FILLER_0_14_3
*331 FILLER_0_14_41
*332 FILLER_0_14_49
*333 FILLER_0_14_57
*334 FILLER_0_14_69
*335 FILLER_0_14_73
*336 FILLER_0_14_77
*337 FILLER_0_14_83
*338 FILLER_0_14_85
*339 FILLER_0_14_97
*340 FILLER_0_15_10
*341 FILLER_0_15_107
*342 FILLER_0_15_111
*343 FILLER_0_15_113
*344 FILLER_0_15_121
*345 FILLER_0_15_146
*346 FILLER_0_15_158
*347 FILLER_0_15_166
*348 FILLER_0_15_169
*349 FILLER_0_15_176
*350 FILLER_0_15_188
*351 FILLER_0_15_22
*352 FILLER_0_15_3
*353 FILLER_0_15_34
*354 FILLER_0_15_46
*355 FILLER_0_15_54
*356 FILLER_0_15_57
*357 FILLER_0_15_62
*358 FILLER_0_15_74
*359 FILLER_0_16_109
*360 FILLER_0_16_113
*361 FILLER_0_16_125
*362 FILLER_0_16_137
*363 FILLER_0_16_141
*364 FILLER_0_16_15
*365 FILLER_0_16_153
*366 FILLER_0_16_165
*367 FILLER_0_16_177
*368 FILLER_0_16_183
*369 FILLER_0_16_27
*370 FILLER_0_16_29
*371 FILLER_0_16_3
*372 FILLER_0_16_41
*373 FILLER_0_16_53
*374 FILLER_0_16_61
*375 FILLER_0_16_85
*376 FILLER_0_16_97
*377 FILLER_0_17_103
*378 FILLER_0_17_111
*379 FILLER_0_17_118
*380 FILLER_0_17_12
*381 FILLER_0_17_130
*382 FILLER_0_17_142
*383 FILLER_0_17_154
*384 FILLER_0_17_163
*385 FILLER_0_17_167
*386 FILLER_0_17_169
*387 FILLER_0_17_181
*388 FILLER_0_17_189
*389 FILLER_0_17_20
*390 FILLER_0_17_28
*391 FILLER_0_17_3
*392 FILLER_0_17_40
*393 FILLER_0_17_52
*394 FILLER_0_17_57
*395 FILLER_0_17_63
*396 FILLER_0_17_67
*397 FILLER_0_17_79
*398 FILLER_0_17_91
*399 FILLER_0_18_109
*400 FILLER_0_18_120
*401 FILLER_0_18_126
*402 FILLER_0_18_130
*403 FILLER_0_18_138
*404 FILLER_0_18_141
*405 FILLER_0_18_153
*406 FILLER_0_18_157
*407 FILLER_0_18_169
*408 FILLER_0_18_181
*409 FILLER_0_18_19
*410 FILLER_0_18_27
*411 FILLER_0_18_29
*412 FILLER_0_18_3
*413 FILLER_0_18_48
*414 FILLER_0_18_60
*415 FILLER_0_18_72
*416 FILLER_0_18_85
*417 FILLER_0_18_97
*418 FILLER_0_19_102
*419 FILLER_0_19_110
*420 FILLER_0_19_113
*421 FILLER_0_19_15
*422 FILLER_0_19_162
*423 FILLER_0_19_169
*424 FILLER_0_19_181
*425 FILLER_0_19_189
*426 FILLER_0_19_24
*427 FILLER_0_19_3
*428 FILLER_0_19_36
*429 FILLER_0_19_48
*430 FILLER_0_19_81
*431 FILLER_0_19_85
*432 FILLER_0_19_90
*433 FILLER_0_1_110
*434 FILLER_0_1_121
*435 FILLER_0_1_129
*436 FILLER_0_1_13
*437 FILLER_0_1_135
*438 FILLER_0_1_147
*439 FILLER_0_1_155
*440 FILLER_0_1_21
*441 FILLER_0_1_26
*442 FILLER_0_1_3
*443 FILLER_0_1_38
*444 FILLER_0_1_44
*445 FILLER_0_1_84
*446 FILLER_0_1_92
*447 FILLER_0_1_98
*448 FILLER_0_20_104
*449 FILLER_0_20_116
*450 FILLER_0_20_128
*451 FILLER_0_20_141
*452 FILLER_0_20_15
*453 FILLER_0_20_165
*454 FILLER_0_20_177
*455 FILLER_0_20_185
*456 FILLER_0_20_27
*457 FILLER_0_20_29
*458 FILLER_0_20_3
*459 FILLER_0_20_41
*460 FILLER_0_20_53
*461 FILLER_0_20_65
*462 FILLER_0_20_77
*463 FILLER_0_20_83
*464 FILLER_0_20_85
*465 FILLER_0_20_92
*466 FILLER_0_21_109
*467 FILLER_0_21_113
*468 FILLER_0_21_125
*469 FILLER_0_21_137
*470 FILLER_0_21_149
*471 FILLER_0_21_161
*472 FILLER_0_21_167
*473 FILLER_0_21_169
*474 FILLER_0_21_181
*475 FILLER_0_21_189
*476 FILLER_0_21_34
*477 FILLER_0_21_42
*478 FILLER_0_21_48
*479 FILLER_0_21_57
*480 FILLER_0_21_61
*481 FILLER_0_21_7
*482 FILLER_0_21_73
*483 FILLER_0_21_85
*484 FILLER_0_22_124
*485 FILLER_0_22_136
*486 FILLER_0_22_146
*487 FILLER_0_22_158
*488 FILLER_0_22_183
*489 FILLER_0_22_29
*490 FILLER_0_22_3
*491 FILLER_0_22_41
*492 FILLER_0_22_68
*493 FILLER_0_22_80
*494 FILLER_0_22_90
*495 FILLER_0_22_94
*496 FILLER_0_23_105
*497 FILLER_0_23_11
*498 FILLER_0_23_111
*499 FILLER_0_23_113
*500 FILLER_0_23_125
*501 FILLER_0_23_137
*502 FILLER_0_23_149
*503 FILLER_0_23_153
*504 FILLER_0_23_16
*505 FILLER_0_23_165
*506 FILLER_0_23_169
*507 FILLER_0_23_181
*508 FILLER_0_23_187
*509 FILLER_0_23_28
*510 FILLER_0_23_3
*511 FILLER_0_23_39
*512 FILLER_0_23_47
*513 FILLER_0_23_57
*514 FILLER_0_23_61
*515 FILLER_0_24_104
*516 FILLER_0_24_116
*517 FILLER_0_24_132
*518 FILLER_0_24_141
*519 FILLER_0_24_153
*520 FILLER_0_24_161
*521 FILLER_0_24_178
*522 FILLER_0_24_188
*523 FILLER_0_24_19
*524 FILLER_0_24_27
*525 FILLER_0_24_29
*526 FILLER_0_24_35
*527 FILLER_0_24_47
*528 FILLER_0_24_7
*529 FILLER_0_24_92
*530 FILLER_0_25_107
*531 FILLER_0_25_111
*532 FILLER_0_25_136
*533 FILLER_0_25_148
*534 FILLER_0_25_160
*535 FILLER_0_25_172
*536 FILLER_0_25_180
*537 FILLER_0_25_186
*538 FILLER_0_25_26
*539 FILLER_0_25_51
*540 FILLER_0_25_55
*541 FILLER_0_25_57
*542 FILLER_0_25_61
*543 FILLER_0_25_70
*544 FILLER_0_25_76
*545 FILLER_0_25_88
*546 FILLER_0_26_115
*547 FILLER_0_26_127
*548 FILLER_0_26_139
*549 FILLER_0_26_141
*550 FILLER_0_26_145
*551 FILLER_0_26_15
*552 FILLER_0_26_150
*553 FILLER_0_26_156
*554 FILLER_0_26_188
*555 FILLER_0_26_22
*556 FILLER_0_26_29
*557 FILLER_0_26_3
*558 FILLER_0_26_41
*559 FILLER_0_26_53
*560 FILLER_0_26_66
*561 FILLER_0_26_74
*562 FILLER_0_26_83
*563 FILLER_0_26_85
*564 FILLER_0_26_99
*565 FILLER_0_27_113
*566 FILLER_0_27_125
*567 FILLER_0_27_137
*568 FILLER_0_27_141
*569 FILLER_0_27_15
*570 FILLER_0_27_154
*571 FILLER_0_27_166
*572 FILLER_0_27_169
*573 FILLER_0_27_181
*574 FILLER_0_27_27
*575 FILLER_0_27_29
*576 FILLER_0_27_3
*577 FILLER_0_27_41
*578 FILLER_0_27_78
*579 FILLER_0_27_82
*580 FILLER_0_27_85
*581 FILLER_0_2_109
*582 FILLER_0_2_118
*583 FILLER_0_2_139
*584 FILLER_0_2_144
*585 FILLER_0_2_15
*586 FILLER_0_2_156
*587 FILLER_0_2_168
*588 FILLER_0_2_174
*589 FILLER_0_2_186
*590 FILLER_0_2_27
*591 FILLER_0_2_3
*592 FILLER_0_2_40
*593 FILLER_0_2_52
*594 FILLER_0_2_60
*595 FILLER_0_2_85
*596 FILLER_0_2_97
*597 FILLER_0_3_102
*598 FILLER_0_3_110
*599 FILLER_0_3_126
*600 FILLER_0_3_13
*601 FILLER_0_3_134
*602 FILLER_0_3_149
*603 FILLER_0_3_165
*604 FILLER_0_3_169
*605 FILLER_0_3_181
*606 FILLER_0_3_189
*607 FILLER_0_3_3
*608 FILLER_0_3_39
*609 FILLER_0_3_51
*610 FILLER_0_3_55
*611 FILLER_0_3_57
*612 FILLER_0_3_65
*613 FILLER_0_3_70
*614 FILLER_0_3_78
*615 FILLER_0_3_9
*616 FILLER_0_3_90
*617 FILLER_0_4_122
*618 FILLER_0_4_134
*619 FILLER_0_4_15
*620 FILLER_0_4_152
*621 FILLER_0_4_164
*622 FILLER_0_4_176
*623 FILLER_0_4_184
*624 FILLER_0_4_27
*625 FILLER_0_4_29
*626 FILLER_0_4_3
*627 FILLER_0_4_37
*628 FILLER_0_4_42
*629 FILLER_0_4_54
*630 FILLER_0_4_67
*631 FILLER_0_4_71
*632 FILLER_0_4_81
*633 FILLER_0_4_85
*634 FILLER_0_4_97
*635 FILLER_0_5_102
*636 FILLER_0_5_110
*637 FILLER_0_5_113
*638 FILLER_0_5_122
*639 FILLER_0_5_134
*640 FILLER_0_5_146
*641 FILLER_0_5_15
*642 FILLER_0_5_158
*643 FILLER_0_5_162
*644 FILLER_0_5_166
*645 FILLER_0_5_169
*646 FILLER_0_5_181
*647 FILLER_0_5_189
*648 FILLER_0_5_27
*649 FILLER_0_5_3
*650 FILLER_0_5_36
*651 FILLER_0_5_40
*652 FILLER_0_5_52
*653 FILLER_0_5_57
*654 FILLER_0_5_74
*655 FILLER_0_5_86
*656 FILLER_0_5_94
*657 FILLER_0_6_11
*658 FILLER_0_6_110
*659 FILLER_0_6_122
*660 FILLER_0_6_134
*661 FILLER_0_6_141
*662 FILLER_0_6_153
*663 FILLER_0_6_16
*664 FILLER_0_6_161
*665 FILLER_0_6_165
*666 FILLER_0_6_173
*667 FILLER_0_6_177
*668 FILLER_0_6_185
*669 FILLER_0_6_20
*670 FILLER_0_6_24
*671 FILLER_0_6_29
*672 FILLER_0_6_41
*673 FILLER_0_6_45
*674 FILLER_0_6_57
*675 FILLER_0_6_69
*676 FILLER_0_6_81
*677 FILLER_0_6_85
*678 FILLER_0_6_98
*679 FILLER_0_7_102
*680 FILLER_0_7_110
*681 FILLER_0_7_113
*682 FILLER_0_7_125
*683 FILLER_0_7_142
*684 FILLER_0_7_15
*685 FILLER_0_7_154
*686 FILLER_0_7_166
*687 FILLER_0_7_169
*688 FILLER_0_7_181
*689 FILLER_0_7_189
*690 FILLER_0_7_27
*691 FILLER_0_7_3
*692 FILLER_0_7_54
*693 FILLER_0_7_57
*694 FILLER_0_7_61
*695 FILLER_0_7_83
*696 FILLER_0_7_90
*697 FILLER_0_8_111
*698 FILLER_0_8_117
*699 FILLER_0_8_124
*700 FILLER_0_8_13
*701 FILLER_0_8_136
*702 FILLER_0_8_141
*703 FILLER_0_8_147
*704 FILLER_0_8_159
*705 FILLER_0_8_171
*706 FILLER_0_8_183
*707 FILLER_0_8_23
*708 FILLER_0_8_27
*709 FILLER_0_8_29
*710 FILLER_0_8_3
*711 FILLER_0_8_49
*712 FILLER_0_8_61
*713 FILLER_0_8_74
*714 FILLER_0_8_82
*715 FILLER_0_8_85
*716 FILLER_0_9_103
*717 FILLER_0_9_111
*718 FILLER_0_9_113
*719 FILLER_0_9_121
*720 FILLER_0_9_126
*721 FILLER_0_9_135
*722 FILLER_0_9_142
*723 FILLER_0_9_15
*724 FILLER_0_9_153
*725 FILLER_0_9_165
*726 FILLER_0_9_177
*727 FILLER_0_9_187
*728 FILLER_0_9_27
*729 FILLER_0_9_3
*730 FILLER_0_9_32
*731 FILLER_0_9_44
*732 FILLER_0_9_57
*733 FILLER_0_9_69
*734 FILLER_0_9_81
*735 PHY_EDGE_ROW_0_Left_28
*736 PHY_EDGE_ROW_0_Right_0
*737 PHY_EDGE_ROW_10_Left_38
*738 PHY_EDGE_ROW_10_Right_10
*739 PHY_EDGE_ROW_11_Left_39
*740 PHY_EDGE_ROW_11_Right_11
*741 PHY_EDGE_ROW_12_Left_40
*742 PHY_EDGE_ROW_12_Right_12
*743 PHY_EDGE_ROW_13_Left_41
*744 PHY_EDGE_ROW_13_Right_13
*745 PHY_EDGE_ROW_14_Left_42
*746 PHY_EDGE_ROW_14_Right_14
*747 PHY_EDGE_ROW_15_Left_43
*748 PHY_EDGE_ROW_15_Right_15
*749 PHY_EDGE_ROW_16_Left_44
*750 PHY_EDGE_ROW_16_Right_16
*751 PHY_EDGE_ROW_17_Left_45
*752 PHY_EDGE_ROW_17_Right_17
*753 PHY_EDGE_ROW_18_Left_46
*754 PHY_EDGE_ROW_18_Right_18
*755 PHY_EDGE_ROW_19_Left_47
*756 PHY_EDGE_ROW_19_Right_19
*757 PHY_EDGE_ROW_1_Left_29
*758 PHY_EDGE_ROW_1_Right_1
*759 PHY_EDGE_ROW_20_Left_48
*760 PHY_EDGE_ROW_20_Right_20
*761 PHY_EDGE_ROW_21_Left_49
*762 PHY_EDGE_ROW_21_Right_21
*763 PHY_EDGE_ROW_22_Left_50
*764 PHY_EDGE_ROW_22_Right_22
*765 PHY_EDGE_ROW_23_Left_51
*766 PHY_EDGE_ROW_23_Right_23
*767 PHY_EDGE_ROW_24_Left_52
*768 PHY_EDGE_ROW_24_Right_24
*769 PHY_EDGE_ROW_25_Left_53
*770 PHY_EDGE_ROW_25_Right_25
*771 PHY_EDGE_ROW_26_Left_54
*772 PHY_EDGE_ROW_26_Right_26
*773 PHY_EDGE_ROW_27_Left_55
*774 PHY_EDGE_ROW_27_Right_27
*775 PHY_EDGE_ROW_2_Left_30
*776 PHY_EDGE_ROW_2_Right_2
*777 PHY_EDGE_ROW_3_Left_31
*778 PHY_EDGE_ROW_3_Right_3
*779 PHY_EDGE_ROW_4_Left_32
*780 PHY_EDGE_ROW_4_Right_4
*781 PHY_EDGE_ROW_5_Left_33
*782 PHY_EDGE_ROW_5_Right_5
*783 PHY_EDGE_ROW_6_Left_34
*784 PHY_EDGE_ROW_6_Right_6
*785 PHY_EDGE_ROW_7_Left_35
*786 PHY_EDGE_ROW_7_Right_7
*787 PHY_EDGE_ROW_8_Left_36
*788 PHY_EDGE_ROW_8_Right_8
*789 PHY_EDGE_ROW_9_Left_37
*790 PHY_EDGE_ROW_9_Right_9
*791 TAP_TAPCELL_ROW_0_56
*792 TAP_TAPCELL_ROW_0_57
*793 TAP_TAPCELL_ROW_0_58
*794 TAP_TAPCELL_ROW_0_59
*795 TAP_TAPCELL_ROW_0_60
*796 TAP_TAPCELL_ROW_0_61
*797 TAP_TAPCELL_ROW_10_89
*798 TAP_TAPCELL_ROW_10_90
*799 TAP_TAPCELL_ROW_10_91
*800 TAP_TAPCELL_ROW_11_92
*801 TAP_TAPCELL_ROW_11_93
*802 TAP_TAPCELL_ROW_11_94
*803 TAP_TAPCELL_ROW_12_95
*804 TAP_TAPCELL_ROW_12_96
*805 TAP_TAPCELL_ROW_12_97
*806 TAP_TAPCELL_ROW_13_100
*807 TAP_TAPCELL_ROW_13_98
*808 TAP_TAPCELL_ROW_13_99
*809 TAP_TAPCELL_ROW_14_101
*810 TAP_TAPCELL_ROW_14_102
*811 TAP_TAPCELL_ROW_14_103
*812 TAP_TAPCELL_ROW_15_104
*813 TAP_TAPCELL_ROW_15_105
*814 TAP_TAPCELL_ROW_15_106
*815 TAP_TAPCELL_ROW_16_107
*816 TAP_TAPCELL_ROW_16_108
*817 TAP_TAPCELL_ROW_16_109
*818 TAP_TAPCELL_ROW_17_110
*819 TAP_TAPCELL_ROW_17_111
*820 TAP_TAPCELL_ROW_17_112
*821 TAP_TAPCELL_ROW_18_113
*822 TAP_TAPCELL_ROW_18_114
*823 TAP_TAPCELL_ROW_18_115
*824 TAP_TAPCELL_ROW_19_116
*825 TAP_TAPCELL_ROW_19_117
*826 TAP_TAPCELL_ROW_19_118
*827 TAP_TAPCELL_ROW_1_62
*828 TAP_TAPCELL_ROW_1_63
*829 TAP_TAPCELL_ROW_1_64
*830 TAP_TAPCELL_ROW_20_119
*831 TAP_TAPCELL_ROW_20_120
*832 TAP_TAPCELL_ROW_20_121
*833 TAP_TAPCELL_ROW_21_122
*834 TAP_TAPCELL_ROW_21_123
*835 TAP_TAPCELL_ROW_21_124
*836 TAP_TAPCELL_ROW_22_125
*837 TAP_TAPCELL_ROW_22_126
*838 TAP_TAPCELL_ROW_22_127
*839 TAP_TAPCELL_ROW_23_128
*840 TAP_TAPCELL_ROW_23_129
*841 TAP_TAPCELL_ROW_23_130
*842 TAP_TAPCELL_ROW_24_131
*843 TAP_TAPCELL_ROW_24_132
*844 TAP_TAPCELL_ROW_24_133
*845 TAP_TAPCELL_ROW_25_134
*846 TAP_TAPCELL_ROW_25_135
*847 TAP_TAPCELL_ROW_25_136
*848 TAP_TAPCELL_ROW_26_137
*849 TAP_TAPCELL_ROW_26_138
*850 TAP_TAPCELL_ROW_26_139
*851 TAP_TAPCELL_ROW_27_140
*852 TAP_TAPCELL_ROW_27_141
*853 TAP_TAPCELL_ROW_27_142
*854 TAP_TAPCELL_ROW_27_143
*855 TAP_TAPCELL_ROW_27_144
*856 TAP_TAPCELL_ROW_27_145
*857 TAP_TAPCELL_ROW_2_65
*858 TAP_TAPCELL_ROW_2_66
*859 TAP_TAPCELL_ROW_2_67
*860 TAP_TAPCELL_ROW_3_68
*861 TAP_TAPCELL_ROW_3_69
*862 TAP_TAPCELL_ROW_3_70
*863 TAP_TAPCELL_ROW_4_71
*864 TAP_TAPCELL_ROW_4_72
*865 TAP_TAPCELL_ROW_4_73
*866 TAP_TAPCELL_ROW_5_74
*867 TAP_TAPCELL_ROW_5_75
*868 TAP_TAPCELL_ROW_5_76
*869 TAP_TAPCELL_ROW_6_77
*870 TAP_TAPCELL_ROW_6_78
*871 TAP_TAPCELL_ROW_6_79
*872 TAP_TAPCELL_ROW_7_80
*873 TAP_TAPCELL_ROW_7_81
*874 TAP_TAPCELL_ROW_7_82
*875 TAP_TAPCELL_ROW_8_83
*876 TAP_TAPCELL_ROW_8_84
*877 TAP_TAPCELL_ROW_8_85
*878 TAP_TAPCELL_ROW_9_86
*879 TAP_TAPCELL_ROW_9_87
*880 TAP_TAPCELL_ROW_9_88
*881 TopModule_10
*882 TopModule_11
*883 TopModule_12
*884 TopModule_13
*885 TopModule_14
*886 TopModule_15
*887 TopModule_16
*888 TopModule_9
*889 _158_
*890 _159_
*891 _160_
*892 _161_
*893 _162_
*894 _163_
*895 _164_
*896 _165_
*897 _166_
*898 _167_
*899 _168_
*900 _169_
*901 _170_
*902 _171_
*903 _172_
*904 _173_
*905 _174_
*906 _175_
*907 _176_
*908 _177_
*909 _178_
*910 _179_
*911 _180_
*912 _181_
*913 _182_
*914 _183_
*915 _184_
*916 _185_
*917 _186_
*918 _187_
*919 _188_
*920 _189_
*921 _190_
*922 _191_
*923 _192_
*924 _193_
*925 _194_
*926 _195_
*927 _196_
*928 _197_
*929 _198_
*930 _199_
*931 _200_
*932 _201_
*933 _202_
*934 _203_
*935 _204_
*936 _205_
*937 _206_
*938 _207_
*939 _208_
*940 _209_
*941 _210_
*942 _211_
*943 _212_
*944 _213_
*945 _214_
*946 _215_
*947 _216_
*948 _217_
*949 _218_
*950 _219_
*951 _220_
*952 _221_
*953 _222_
*954 _223_
*955 _224_
*956 _225_
*957 _226_
*958 _227_
*959 _228_
*960 _229_
*961 _230_
*962 _231_
*963 _232_
*964 _233_
*965 _234_
*966 _235_
*967 _236_
*968 _237_
*969 _238_
*970 _239_
*971 _240_
*972 _241_
*973 _242_
*974 _243_
*975 _244_
*976 _245_
*977 _246_
*978 _247_
*979 _248_
*980 _249_
*981 _250_
*982 _251_
*983 _252_
*984 _253_
*985 _254_
*986 _255_
*987 _256_
*988 _257_
*989 _258_
*990 _259_
*991 _260_
*992 _261_
*993 _262_
*994 _263_
*995 _264_
*996 _265_
*997 _266_
*998 _267_
*999 _268_
*1000 _269_
*1001 _270_
*1002 _271_
*1003 _272_
*1004 _273_
*1005 _274_
*1006 _275_
*1007 _276_
*1008 _277_
*1009 _278_
*1010 _279_
*1011 _280_
*1012 _281_
*1013 _282_
*1014 _283_
*1015 _284_
*1016 _285_
*1017 _286_
*1018 _287_
*1019 _288_
*1020 _289_
*1021 _290_
*1022 _291_
*1023 _292_
*1024 _293_
*1025 _294_
*1026 _295_
*1027 _296_
*1028 _297_
*1029 _298_
*1030 _299_
*1031 _300_
*1032 _301_
*1033 _302_
*1034 _303_
*1035 _304_
*1036 _305_
*1037 _306_
*1038 _307_
*1039 _308_
*1040 _309_
*1041 _310_
*1042 _311_
*1043 _312_
*1044 _313_
*1045 _314_
*1046 _315_
*1047 _316_
*1048 _317_
*1049 _318_
*1050 _319_
*1051 _320_
*1052 _321_
*1053 _322_
*1054 _323_
*1055 _324_
*1056 _325_
*1057 _326_
*1058 _327_
*1059 _328_
*1060 _329_
*1061 _330_
*1062 _331_
*1063 _332_
*1064 _333_
*1065 _334_
*1066 _335_
*1067 _336_
*1068 _337_
*1069 _338_
*1070 _339_
*1071 _340_
*1072 _341_
*1073 _342_
*1074 _343_
*1075 _344_
*1076 _345_
*1077 _346_
*1078 _347_
*1079 _348_
*1080 _349_
*1081 _350_
*1082 _351_
*1083 _352_
*1084 _353_
*1085 _362_
*1086 clkbuf_0_clk
*1087 clkbuf_2_0__f_clk
*1088 clkbuf_2_1__f_clk
*1089 clkbuf_2_2__f_clk
*1090 clkbuf_2_3__f_clk
*1091 clkload0
*1092 clkload1
*1093 clkload2
*1094 input1
*1095 output2
*1096 output3
*1097 output4
*1098 output5
*1099 output6
*1100 output7
*1101 output8

*PORTS
an[0] O
an[1] O
an[2] O
an[3] O
an[4] O
an[5] O
an[6] O
an[7] O
clk I
rst I
seg[0] O
seg[1] O
seg[2] O
seg[3] O
seg[4] O
seg[5] O
seg[6] O

*D_NET *3 0.000696361
*CONN
*P an[0] O
*I *888:LO O *D sky130_fd_sc_hd__conb_1
*CAP
1 an[0] 0.00034818
2 *888:LO 0.00034818
3 an[0] an[1] 0
*RES
1 *888:LO an[0] 48.5734 
*END

*D_NET *4 0.000671315
*CONN
*P an[1] O
*I *881:HI O *D sky130_fd_sc_hd__conb_1
*CAP
1 an[1] 0.000298677
2 *881:HI 0.000298677
3 an[1] an[2] 0
4 an[1] *213:10 7.39611e-05
5 an[0] an[1] 0
*RES
1 *881:HI an[1] 47.8691 
*END

*D_NET *5 0.00104159
*CONN
*P an[2] O
*I *882:HI O *D sky130_fd_sc_hd__conb_1
*CAP
1 an[2] 0.000497924
2 *882:HI 0.000497924
3 an[2] an[3] 0
4 an[2] *102:45 0
5 an[2] *116:14 4.57385e-05
6 an[1] an[2] 0
*RES
1 *882:HI an[2] 47.5941 
*END

*D_NET *6 0.000590618
*CONN
*P an[3] O
*I *883:HI O *D sky130_fd_sc_hd__conb_1
*CAP
1 an[3] 0.000271742
2 *883:HI 0.000271742
3 an[3] an[4] 0
4 an[3] *69:10 2.26497e-05
5 an[3] *213:10 2.44846e-05
6 an[2] an[3] 0
*RES
1 *883:HI an[3] 47.1648 
*END

*D_NET *7 0.000584545
*CONN
*P an[4] O
*I *884:HI O *D sky130_fd_sc_hd__conb_1
*CAP
1 an[4] 0.000268705
2 *884:HI 0.000268705
3 an[4] an[5] 0
4 an[4] *69:10 2.26497e-05
5 an[4] *213:10 2.44846e-05
6 an[3] an[4] 0
*RES
1 *884:HI an[4] 47.1648 
*END

*D_NET *8 0.00057841
*CONN
*P an[5] O
*I *885:HI O *D sky130_fd_sc_hd__conb_1
*CAP
1 an[5] 0.000265529
2 *885:HI 0.000265529
3 an[5] an[6] 0
4 an[5] *69:10 2.26497e-05
5 an[5] *213:10 2.47015e-05
6 an[4] an[5] 0
*RES
1 *885:HI an[5] 47.1648 
*END

*D_NET *9 0.000642594
*CONN
*P an[6] O
*I *886:HI O *D sky130_fd_sc_hd__conb_1
*CAP
1 an[6] 0.000270144
2 *886:HI 0.000270144
3 an[6] an[7] 0
4 an[6] *69:10 4.9808e-05
5 an[6] *213:10 5.2497e-05
6 an[5] an[6] 0
*RES
1 *886:HI an[6] 47.5169 
*END

*D_NET *10 0.000861256
*CONN
*P an[7] O
*I *887:HI O *D sky130_fd_sc_hd__conb_1
*CAP
1 an[7] 0.000367202
2 *887:HI 0.000367202
3 an[7] seg[0] 0
4 an[7] *21:16 2.47015e-05
5 an[7] *102:47 2.26497e-05
6 an[7] *205:12 7.95009e-05
7 an[6] an[7] 0
*RES
1 *887:HI an[7] 47.4224 
*END

*D_NET *11 0.0149022
*CONN
*P clk I
*I *1086:A I *D sky130_fd_sc_hd__clkbuf_16
*CAP
1 clk 0.00536865
2 *1086:A 0
3 *11:21 0.00536865
4 *11:21 *1075:RESET_B 0
5 *11:21 *1078:RESET_B 0.000850534
6 *11:21 *26:16 0
7 *11:21 *38:24 0
8 *11:21 *43:24 0.001744
9 *11:21 *76:14 0
10 *11:21 *91:37 3.92967e-05
11 *11:21 *131:22 0.000833197
12 *11:21 *159:24 4.15283e-06
13 *11:21 *160:18 0.000124567
14 *11:21 *166:65 7.01969e-05
15 *11:21 *176:114 0.000227257
16 *11:21 *196:16 0.000105454
17 *11:21 *205:26 0.000166223
*RES
1 clk *11:21 40.3816 
2 *11:21 *1086:A 38 
*END

*D_NET *12 0.000669874
*CONN
*P rst I
*I *1094:A I *D sky130_fd_sc_hd__buf_2
*CAP
1 rst 0.000305199
2 *1094:A 0.000305199
3 *1094:A *76:16 5.94746e-05
*RES
1 rst *1094:A 49.1918 
*END

*D_NET *13 0.000975847
*CONN
*P seg[0] O
*I *1095:X O *D sky130_fd_sc_hd__buf_1
*CAP
1 seg[0] 0.000457182
2 *1095:X 0.000457182
3 seg[0] seg[1] 0
4 seg[0] *74:14 2.42807e-05
5 seg[0] *177:80 2.73373e-05
6 seg[0] *187:85 9.86551e-06
7 an[7] seg[0] 0
*RES
1 *1095:X seg[0] 47.5941 
*END

*D_NET *14 0.000582675
*CONN
*P seg[1] O
*I *1096:X O *D sky130_fd_sc_hd__buf_1
*CAP
1 seg[1] 0.00026777
2 *1096:X 0.00026777
3 seg[1] seg[2] 0
4 seg[1] *69:10 2.26497e-05
5 seg[1] *213:10 2.44846e-05
6 seg[0] seg[1] 0
*RES
1 *1096:X seg[1] 47.1648 
*END

*D_NET *15 0.000594301
*CONN
*P seg[2] O
*I *1097:X O *D sky130_fd_sc_hd__buf_1
*CAP
1 seg[2] 0.000273475
2 *1097:X 0.000273475
3 seg[2] seg[3] 0
4 seg[2] *69:10 2.26497e-05
5 seg[2] *213:10 2.47015e-05
6 seg[1] seg[2] 0
*RES
1 *1097:X seg[2] 47.1648 
*END

*D_NET *16 0.000549595
*CONN
*P seg[3] O
*I *1098:X O *D sky130_fd_sc_hd__buf_1
*CAP
1 seg[3] 0.000263473
2 *1098:X 0.000263473
3 seg[3] seg[4] 0
4 seg[3] *69:10 2.26497e-05
5 seg[2] seg[3] 0
*RES
1 *1098:X seg[3] 47.1648 
*END

*D_NET *17 0.00055328
*CONN
*P seg[4] O
*I *1099:X O *D sky130_fd_sc_hd__buf_1
*CAP
1 seg[4] 0.000248872
2 *1099:X 0.000248872
3 seg[4] seg[5] 0
4 seg[4] *1074:RESET_B 2.01445e-05
5 seg[4] *69:10 2.26497e-05
6 seg[4] *220:37 1.27424e-05
7 seg[3] seg[4] 0
*RES
1 *1099:X seg[4] 47.1648 
*END

*D_NET *18 0.000529445
*CONN
*P seg[5] O
*I *1100:X O *D sky130_fd_sc_hd__buf_1
*CAP
1 seg[5] 0.000256351
2 *1100:X 0.000256351
3 seg[5] seg[6] 0
4 seg[5] *1074:RESET_B 4.69626e-06
5 seg[5] *221:22 1.20476e-05
6 seg[4] seg[5] 0
*RES
1 *1100:X seg[5] 47.1648 
*END

*D_NET *19 0.000533258
*CONN
*P seg[6] O
*I *1101:X O *D sky130_fd_sc_hd__buf_1
*CAP
1 seg[6] 0.000260258
2 *1101:X 0.000260258
3 seg[6] *222:22 1.27424e-05
4 seg[5] seg[6] 0
*RES
1 *1101:X seg[6] 47.1648 
*END

*D_NET *20 0.055388
*CONN
*I *994:C1 I *D sky130_fd_sc_hd__a211oi_1
*I *933:A I *D sky130_fd_sc_hd__nor3_1
*I *978:A I *D sky130_fd_sc_hd__nor2_1
*I *972:C1 I *D sky130_fd_sc_hd__a211oi_1
*I *960:A I *D sky130_fd_sc_hd__nor3_1
*I *914:B I *D sky130_fd_sc_hd__nor2_1
*I *1053:D I *D sky130_fd_sc_hd__dfrtp_4
*I *1003:A I *D sky130_fd_sc_hd__nor2_1
*I *939:B1 I *D sky130_fd_sc_hd__a211oi_1
*I *997:A I *D sky130_fd_sc_hd__nor3_1
*I *913:Y O *D sky130_fd_sc_hd__clkinv_4
*CAP
1 *994:C1 0
2 *933:A 0.000174708
3 *978:A 4.27215e-05
4 *972:C1 0
5 *960:A 4.65791e-05
6 *914:B 0
7 *1053:D 0
8 *1003:A 0.00040426
9 *939:B1 0
10 *997:A 0.000109736
11 *913:Y 7.29955e-05
12 *20:216 0.00115223
13 *20:195 0.00225177
14 *20:187 0.00154481
15 *20:175 0.000313287
16 *20:173 0.000997708
17 *20:152 0.00164894
18 *20:129 0.000876968
19 *20:119 0.00123348
20 *20:104 0.00125984
21 *20:94 0.00163944
22 *20:82 0.00160377
23 *20:66 0.00116016
24 *20:58 0.00232164
25 *20:50 0.00242123
26 *20:32 0.00152976
27 *20:22 0.00182024
28 *20:18 0.00124623
29 *20:8 0.00160465
30 *933:A *117:59 9.65021e-05
31 *933:A *198:16 0.000100069
32 *960:A *90:14 4.05745e-05
33 *960:A *214:82 9.41704e-05
34 *997:A *997:B 4.98295e-05
35 *1003:A *62:14 0.000597625
36 *1003:A *168:30 0.000380188
37 *1003:A *211:35 4.17625e-05
38 *20:8 *103:66 9.64943e-05
39 *20:8 *112:137 4.21281e-05
40 *20:8 *164:31 0.000178227
41 *20:18 *1078:RESET_B 7.72716e-05
42 *20:18 *1079:RESET_B 6.87317e-05
43 *20:18 *77:16 0.000470766
44 *20:18 *95:21 0.000427652
45 *20:18 *171:12 2.26406e-05
46 *20:18 *175:14 0.000475679
47 *20:18 *186:29 0.000458975
48 *20:18 *195:73 0
49 *20:18 *195:83 0
50 *20:18 *220:10 0
51 *20:22 *109:6 0.000630401
52 *20:32 *889:A 0.000269577
53 *20:32 *995:B 0.000837225
54 *20:32 *1062:RESET_B 4.88572e-05
55 *20:32 *57:6 0.000100486
56 *20:32 *84:8 2.193e-05
57 *20:32 *109:6 0.000234367
58 *20:32 *131:28 0.000132342
59 *20:32 *183:145 8.24523e-05
60 *20:32 *188:28 0.000166143
61 *20:32 *188:61 8.9726e-05
62 *20:50 *95:21 0.000952949
63 *20:50 *184:103 8.83363e-05
64 *20:50 *190:20 9.43343e-05
65 *20:50 *220:10 0
66 *20:58 *1013:A 0.000692299
67 *20:58 *1053:CLK 8.87493e-05
68 *20:58 *190:46 9.26746e-05
69 *20:58 *208:8 0.000393937
70 *20:58 *214:10 0.000321691
71 *20:58 *214:31 0.000584868
72 *20:66 *1053:CLK 7.14447e-05
73 *20:66 *87:65 0.000590733
74 *20:66 *136:12 0.000592861
75 *20:66 *190:46 2.94279e-05
76 *20:82 *95:21 0.000222981
77 *20:82 *184:103 5.71629e-05
78 *20:82 *190:14 2.31434e-05
79 *20:94 *1093:A 5.79559e-05
80 *20:94 *103:52 5.73539e-05
81 *20:94 *126:82 3.36312e-06
82 *20:94 *127:12 0.000527078
83 *20:94 *206:12 0.000613632
84 *20:104 *159:10 0.000544526
85 *20:104 *159:18 0.000738179
86 *20:104 *181:8 4.67488e-05
87 *20:104 *185:43 9.79925e-05
88 *20:104 *187:79 0.00107441
89 *20:104 *206:18 0.000499206
90 *20:104 *216:14 0.000151324
91 *20:119 *43:24 0.00053425
92 *20:119 *95:21 0.00012671
93 *20:119 *95:32 0.000370833
94 *20:119 *122:20 0.000845154
95 *20:119 *178:14 0.000105798
96 *20:119 *183:57 0.000842618
97 *20:119 *190:14 2.1883e-05
98 *20:119 *205:26 0.000263162
99 *20:129 *24:12 0.000232983
100 *20:129 *122:20 0.0002279
101 *20:129 *169:6 9.64943e-05
102 *20:129 *203:54 9.41704e-05
103 *20:152 *83:38 9.77922e-06
104 *20:152 *90:10 1.00493e-05
105 *20:152 *90:14 0.000423433
106 *20:152 *142:32 0.000204749
107 *20:152 *142:50 0
108 *20:152 *144:26 1.24376e-05
109 *20:152 *186:8 5.56356e-05
110 *20:152 *186:18 0.000342248
111 *20:152 *192:86 6.99132e-06
112 *20:152 *197:33 0.000558638
113 *20:152 *208:18 0.000257636
114 *20:152 *214:82 7.49745e-05
115 *20:173 *972:B1 2.64958e-05
116 *20:173 *994:B1 0.000117257
117 *20:173 *27:8 2.24453e-05
118 *20:173 *83:38 0.000140939
119 *20:173 *86:20 6.56284e-05
120 *20:173 *87:32 0.000153853
121 *20:173 *118:32 4.89411e-05
122 *20:173 *122:20 0
123 *20:173 *144:26 3.9015e-05
124 *20:173 *189:18 0.000660051
125 *20:173 *189:33 0.000200798
126 *20:173 *195:28 0.000438009
127 *20:173 *197:64 0.000491239
128 *20:173 *200:45 0.000188957
129 *20:173 *201:24 4.40195e-05
130 *20:187 *977:A 6.37194e-06
131 *20:187 *34:10 0.000492617
132 *20:187 *92:8 0.000532067
133 *20:187 *175:115 2.22269e-05
134 *20:187 *208:65 7.32728e-05
135 *20:195 *92:14 0.00130036
136 *20:195 *150:8 0.000543653
137 *20:216 *80:16 0
138 *20:216 *98:12 2.29192e-05
139 *20:216 *161:8 0.000584653
140 *20:216 *183:12 7.73918e-05
141 *20:216 *198:16 2.8411e-05
142 *20:216 *198:29 0.000228558
*RES
1 *913:Y *20:8 40.0507 
2 *20:8 *20:18 48.3529 
3 *20:18 *20:22 21.815 
4 *20:22 *20:32 41.7421 
5 *20:32 *997:A 39.595 
6 *20:22 *939:B1 23 
7 *20:8 *20:50 13.8786 
8 *20:50 *20:58 42.8866 
9 *20:58 *20:66 44.0391 
10 *20:66 *1003:A 32.6943 
11 *20:58 *1053:D 23 
12 *20:50 *20:82 3.31429 
13 *20:82 *20:94 40.3157 
14 *20:94 *20:104 46.7757 
15 *20:104 *914:B 23 
16 *20:82 *20:119 36.04 
17 *20:119 *20:129 49.4121 
18 *20:129 *960:A 24.0979 
19 *20:129 *20:152 45.7429 
20 *20:152 *972:C1 23 
21 *20:152 *20:173 45.8795 
22 *20:173 *20:175 15 
23 *20:175 *20:187 38.7829 
24 *20:187 *20:195 22.1229 
25 *20:195 *978:A 23.6214 
26 *20:195 *20:216 49.575 
27 *20:216 *933:A 26.48 
28 *20:175 *994:C1 23 
*END

*D_NET *21 0.0124019
*CONN
*I *1054:D I *D sky130_fd_sc_hd__dfrtp_4
*I *914:Y O *D sky130_fd_sc_hd__nor2_1
*CAP
1 *1054:D 0
2 *914:Y 0.000157487
3 *21:18 0.0020094
4 *21:16 0.00269214
5 *21:12 0.000840232
6 *21:12 *102:47 0.000233256
7 *21:12 *177:80 0.000108112
8 *21:12 *187:79 5.82853e-05
9 *21:16 *1042:A 0.000434561
10 *21:16 *102:47 0.000924297
11 *21:16 *177:80 0.00054968
12 *21:16 *177:89 0.00111472
13 *21:16 *213:10 6.29648e-05
14 *21:18 *1033:A 0.000261956
15 *21:18 *69:8 2.45549e-06
16 *21:18 *118:36 0.00179746
17 *21:18 *176:135 0.000219383
18 *21:18 *182:60 0.0004343
19 *21:18 *187:43 0.000196023
20 *21:18 *192:115 0.000280443
21 an[7] *21:16 2.47015e-05
*RES
1 *914:Y *21:12 42.3811 
2 *21:12 *21:16 42.7882 
3 *21:16 *21:18 40.165 
4 *21:18 *1054:D 23 
*END

*D_NET *22 0.0122364
*CONN
*I *1064:D I *D sky130_fd_sc_hd__dfrtp_4
*I *952:X O *D sky130_fd_sc_hd__buf_1
*CAP
1 *1064:D 0
2 *952:X 0
3 *22:18 0.00103426
4 *22:14 0.0031451
5 *22:6 0.00211085
6 *22:14 *73:16 6.16906e-05
7 *22:14 *91:37 0.000150606
8 *22:14 *94:10 0.000209385
9 *22:14 *94:37 0.00104426
10 *22:14 *105:16 0
11 *22:14 *131:28 0
12 *22:14 *213:39 0.00114529
13 *22:18 *37:10 1.54492e-05
14 *22:18 *59:18 0
15 *22:18 *62:22 0.00112808
16 *22:18 *112:30 0.00015169
17 *22:18 *175:63 0
18 *22:18 *175:80 0.000170107
19 *22:18 *215:14 0.00186959
*RES
1 *952:X *22:6 38 
2 *22:6 *22:14 47.2277 
3 *22:14 *22:18 43.8446 
4 *22:18 *1064:D 23 
*END

*D_NET *23 0.0192587
*CONN
*I *1065:D I *D sky130_fd_sc_hd__dfrtp_2
*I *957:X O *D sky130_fd_sc_hd__buf_1
*CAP
1 *1065:D 0
2 *957:X 4.8339e-05
3 *23:24 0.0045229
4 *23:12 0.00457124
5 *23:12 *26:24 9.78238e-05
6 *23:12 *119:37 2.44754e-05
7 *23:12 *177:148 9.14716e-05
8 *23:24 *30:12 6.50278e-05
9 *23:24 *36:24 0.00354581
10 *23:24 *50:26 0.00277646
11 *23:24 *78:28 0.000319529
12 *23:24 *86:43 0.000177628
13 *23:24 *86:51 0
14 *23:24 *86:93 0.00027408
15 *23:24 *101:18 0.00150731
16 *23:24 *112:102 0.000583183
17 *23:24 *115:8 2.29192e-05
18 *23:24 *116:34 0.000128303
19 *23:24 *192:115 0.000364336
20 *23:24 *208:34 0.000111468
21 *23:24 *208:55 2.63601e-05
*RES
1 *957:X *23:12 46.5059 
2 *23:12 *23:24 49.0726 
3 *23:24 *1065:D 38 
*END

*D_NET *24 0.00403401
*CONN
*I *1066:D I *D sky130_fd_sc_hd__dfrtp_1
*I *960:Y O *D sky130_fd_sc_hd__nor3_1
*CAP
1 *1066:D 0
2 *960:Y 0.000151912
3 *24:12 0.000655838
4 *24:8 0.00080775
5 *24:8 *960:C 0.000164443
6 *24:12 *25:12 1.0092e-05
7 *24:12 *122:20 0.000156825
8 *24:12 *159:24 0.00122013
9 *24:12 *211:10 0.000623487
10 *24:12 *211:14 1.05441e-05
11 *20:129 *24:12 0.000232983
*RES
1 *960:Y *24:8 40.0507 
2 *24:8 *24:12 32.4 
3 *24:12 *1066:D 23 
*END

*D_NET *25 0.00943806
*CONN
*I *1067:D I *D sky130_fd_sc_hd__dfrtp_4
*I *964:X O *D sky130_fd_sc_hd__clkbuf_1
*CAP
1 *1067:D 0.00173025
2 *964:X 0.00112682
3 *25:12 0.00191432
4 *25:6 0.00131089
5 *1067:D *960:C 0.0015713
6 *1067:D *1067:CLK 0.000202429
7 *1067:D *90:14 0.000182738
8 *1067:D *191:22 4.27486e-05
9 *1067:D *203:90 1.89135e-05
10 *25:6 *49:26 9.77405e-05
11 *25:6 *187:20 0.000746715
12 *25:6 *196:10 2.64616e-05
13 *25:6 *196:89 4.05496e-05
14 *25:6 *198:33 2.3923e-05
15 *25:12 *122:20 0.000275778
16 *25:12 *159:24 0.000116392
17 *24:12 *25:12 1.0092e-05
*RES
1 *964:X *25:6 37.9143 
2 *25:6 *25:12 34.0186 
3 *25:12 *1067:D 48.7893 
*END

*D_NET *26 0.0214048
*CONN
*I *1068:D I *D sky130_fd_sc_hd__dfrtp_2
*I *968:X O *D sky130_fd_sc_hd__buf_1
*CAP
1 *1068:D 0
2 *968:X 5.19731e-05
3 *26:24 0.0041281
4 *26:16 0.0062616
5 *26:8 0.00218547
6 *26:8 *143:14 1.75792e-05
7 *26:16 *32:14 0
8 *26:16 *76:16 1.42282e-05
9 *26:16 *93:68 0.000809712
10 *26:16 *105:16 0.00103897
11 *26:16 *121:14 0
12 *26:16 *126:10 0
13 *26:16 *221:12 2.75733e-06
14 *26:16 *221:22 0
15 *26:24 *949:B 0.000148737
16 *26:24 *1074:RESET_B 0.000208066
17 *26:24 *27:24 0.00152114
18 *26:24 *63:18 0.000171893
19 *26:24 *78:28 0.000792307
20 *26:24 *108:18 0
21 *26:24 *117:16 2.156e-05
22 *26:24 *119:24 0.000332933
23 *26:24 *121:14 0.000141169
24 *26:24 *126:47 0.000177452
25 *26:24 *173:30 0.000354814
26 *26:24 *175:14 0.00192791
27 *26:24 *177:148 0.000729003
28 *26:24 *184:16 5.89347e-05
29 *26:24 *192:10 8.36198e-05
30 *26:24 *210:40 0
31 *26:24 *221:22 0.000127098
32 *11:21 *26:16 0
33 *23:12 *26:24 9.78238e-05
*RES
1 *968:X *26:8 38.6214 
2 *26:8 *26:16 42.731 
3 *26:16 *26:24 39.8128 
4 *26:24 *1068:D 23 
*END

*D_NET *27 0.0173676
*CONN
*I *1069:D I *D sky130_fd_sc_hd__dfrtp_1
*I *972:Y O *D sky130_fd_sc_hd__a211oi_1
*CAP
1 *1069:D 0
2 *972:Y 0.000260827
3 *27:24 0.00507182
4 *27:8 0.00533265
5 *27:8 *892:A 3.38086e-05
6 *27:8 *972:B1 1.05441e-05
7 *27:8 *184:88 0.000201056
8 *27:8 *186:40 0.000370366
9 *27:8 *197:64 4.27516e-05
10 *27:24 *63:18 0.000132304
11 *27:24 *78:28 0.000725327
12 *27:24 *119:24 0.000896631
13 *27:24 *155:51 0.000310084
14 *27:24 *171:24 0.00112149
15 *27:24 *184:88 0.000778414
16 *27:24 *189:71 6.10551e-06
17 *27:24 *192:18 1.05658e-05
18 *27:24 *196:89 0.000103742
19 *27:24 *197:41 0.000240272
20 *27:24 *200:64 8.76318e-05
21 *27:24 *210:72 8.76318e-05
22 *20:173 *27:8 2.24453e-05
23 *26:24 *27:24 0.00152114
*RES
1 *972:Y *27:8 43.9554 
2 *27:8 *27:24 47.0043 
3 *27:24 *1069:D 38 
*END

*D_NET *28 0.00672349
*CONN
*I *1070:D I *D sky130_fd_sc_hd__dfrtp_4
*I *976:X O *D sky130_fd_sc_hd__clkbuf_1
*CAP
1 *1070:D 0
2 *976:X 0.000490988
3 *28:18 0.000897257
4 *28:6 0.00138824
5 *28:6 *44:8 0.00133364
6 *28:6 *103:20 0.00118814
7 *28:6 *214:72 9.17484e-05
8 *28:18 *84:39 0
9 *28:18 *103:24 0
10 *28:18 *103:38 0
11 *28:18 *176:118 0.000122244
12 *28:18 *182:40 0.000833624
13 *28:18 *189:61 0.00015494
14 *28:18 *192:59 0.000222668
*RES
1 *976:X *28:6 39.3436 
2 *28:6 *28:18 47.5243 
3 *28:18 *1070:D 23 
*END

*D_NET *29 0.0118722
*CONN
*I *1071:D I *D sky130_fd_sc_hd__dfrtp_4
*I *978:Y O *D sky130_fd_sc_hd__nor2_1
*CAP
1 *1071:D 0.000231765
2 *978:Y 0.000269821
3 *29:16 0.00135465
4 *29:12 0.00326909
5 *29:10 0.0021462
6 *29:8 0.000269821
7 *1071:D *1071:CLK 9.4618e-05
8 *1071:D *44:8 2.51697e-05
9 *29:8 *35:10 0
10 *29:12 *148:54 0.000281393
11 *29:12 *152:26 0.000201842
12 *29:12 *201:76 0.00153647
13 *29:16 *71:12 0.00109449
14 *29:16 *142:16 0
15 *29:16 *176:141 0
16 *29:16 *182:17 1.1974e-05
17 *29:16 *182:28 6.22032e-05
18 *29:16 *182:109 4.24694e-06
19 *29:16 *209:66 0.00101502
20 *29:16 *214:70 3.41998e-06
*RES
1 *978:Y *29:8 43.075 
2 *29:8 *29:10 15 
3 *29:10 *29:12 55.8871 
4 *29:12 *29:16 38.3864 
5 *29:16 *1071:D 41.48 
*END

*D_NET *30 0.00706191
*CONN
*I *1072:D I *D sky130_fd_sc_hd__dfrtp_4
*I *981:X O *D sky130_fd_sc_hd__o221a_1
*CAP
1 *1072:D 0
2 *981:X 0.000293512
3 *30:12 0.000964657
4 *30:6 0.00125817
5 *30:6 *71:26 7.5514e-05
6 *30:6 *152:26 0.000320493
7 *30:6 *176:153 0.000971121
8 *30:6 *182:109 0.000294988
9 *30:6 *197:79 0.00175941
10 *30:12 *901:A2 0
11 *30:12 *67:16 5.95172e-05
12 *30:12 *112:102 9.36329e-05
13 *30:12 *158:8 0.00067334
14 *30:12 *186:40 0
15 *30:12 *192:86 0.000117355
16 *30:12 *197:64 0
17 *30:12 *197:77 0
18 *30:12 *199:41 0.000115173
19 *23:24 *30:12 6.50278e-05
*RES
1 *981:X *30:6 42.2021 
2 *30:6 *30:12 47.7521 
3 *30:12 *1072:D 23 
*END

*D_NET *31 0.00377095
*CONN
*I *1073:D I *D sky130_fd_sc_hd__dfrtp_2
*I *987:X O *D sky130_fd_sc_hd__clkbuf_1
*CAP
1 *1073:D 0
2 *987:X 9.38454e-05
3 *31:12 0.00107368
4 *31:8 0.00116753
5 *31:8 *40:12 0.000210916
6 *31:8 *59:12 0.000213016
7 *31:12 *89:10 2.17486e-05
8 *31:12 *106:8 6.17437e-06
9 *31:12 *133:60 0.000473374
10 *31:12 *179:64 0.00051066
*RES
1 *987:X *31:8 40.9621 
2 *31:8 *31:12 32.7729 
3 *31:12 *1073:D 23 
*END

*D_NET *32 0.0102461
*CONN
*I *1055:D I *D sky130_fd_sc_hd__dfrtp_4
*I *918:X O *D sky130_fd_sc_hd__clkbuf_1
*CAP
1 *1055:D 0.000594326
2 *918:X 0.000711974
3 *32:14 0.00237016
4 *32:12 0.00177584
5 *32:10 0.000711974
6 *1055:D *198:29 0.000400137
7 *1055:D *198:33 5.1614e-07
8 *32:10 *922:A 0.000181125
9 *32:10 *40:8 9.58714e-05
10 *32:10 *156:14 0.000128749
11 *32:10 *164:18 1.21972e-05
12 *32:14 *76:16 0
13 *32:14 *100:10 0.00134
14 *32:14 *105:16 0
15 *32:14 *121:14 0.00167978
16 *32:14 *155:10 8.29264e-05
17 *32:14 *155:22 0.000160499
18 *32:14 *198:16 0
19 *26:16 *32:14 0
*RES
1 *918:X *32:10 35.2214 
2 *32:10 *32:12 15 
3 *32:12 *32:14 45.2193 
4 *32:14 *1055:D 46.3064 
*END

*D_NET *33 0.00344285
*CONN
*I *1074:D I *D sky130_fd_sc_hd__dfrtp_2
*I *991:X O *D sky130_fd_sc_hd__clkbuf_1
*CAP
1 *1074:D 0.000285423
2 *991:X 0.000647683
3 *33:8 0.000933106
4 *1074:D *133:14 0.000331478
5 *1074:D *133:60 0.00018835
6 *1074:D *188:22 0.00032327
7 *1074:D *188:28 0
8 *33:8 *37:14 0.000646359
9 *33:8 *194:71 8.71791e-05
*RES
1 *991:X *33:8 47.1971 
2 *33:8 *1074:D 45.1879 
*END

*D_NET *34 0.00324351
*CONN
*I *1075:D I *D sky130_fd_sc_hd__dfrtp_2
*I *994:Y O *D sky130_fd_sc_hd__a211oi_1
*CAP
1 *1075:D 0.000205258
2 *994:Y 0.000440761
3 *34:10 0.000646019
4 *1075:D *1022:A 5.3304e-05
5 *1075:D *1081:CLK 7.73389e-05
6 *1075:D *51:8 9.21352e-06
7 *1075:D *175:103 0.000438682
8 *1075:D *180:49 2.32004e-05
9 *1075:D *183:16 0.000737842
10 *34:10 *92:14 2.56967e-05
11 *34:10 *93:94 4.80826e-05
12 *34:10 *175:115 1.02387e-05
13 *34:10 *208:65 3.5259e-05
14 *20:187 *34:10 0.000492617
*RES
1 *994:Y *34:10 46.2443 
2 *34:10 *1075:D 46.2443 
*END

*D_NET *35 0.0140219
*CONN
*I *1076:D I *D sky130_fd_sc_hd__dfrtp_2
*I *997:Y O *D sky130_fd_sc_hd__nor3_1
*CAP
1 *1076:D 0
2 *997:Y 5.31804e-05
3 *35:14 0.000658193
4 *35:10 0.00307026
5 *35:8 0.00246525
6 *35:8 *997:B 4.91172e-06
7 *35:10 *911:B1 0.000186964
8 *35:10 *1062:RESET_B 0.000116673
9 *35:10 *73:16 0.00164277
10 *35:10 *80:16 0.000326726
11 *35:10 *92:14 0.000184442
12 *35:10 *99:10 8.93663e-05
13 *35:10 *101:18 1.38978e-05
14 *35:10 *102:12 9.78317e-06
15 *35:10 *131:28 0.00152737
16 *35:10 *133:75 0.000209799
17 *35:10 *143:14 0.000351626
18 *35:10 *164:18 0.000607956
19 *35:10 *167:32 0.000291612
20 *35:10 *176:71 0
21 *35:10 *183:12 0
22 *35:10 *190:52 5.36496e-06
23 *35:10 *194:49 0.000907735
24 *35:10 *198:29 8.58315e-05
25 *35:10 *200:16 0.000243334
26 *35:10 *200:35 1.23172e-05
27 *35:10 *212:14 9.20726e-06
28 *35:10 *212:25 5.36315e-05
29 *35:10 *212:80 0.000114813
30 *35:10 *213:28 0.000154313
31 *35:14 *1065:RESET_B 0.000530627
32 *35:14 *1076:CLK 2.93845e-05
33 *35:14 *48:14 6.45321e-05
34 *29:8 *35:10 0
*RES
1 *997:Y *35:8 38.6214 
2 *35:8 *35:10 70.2214 
3 *35:10 *35:14 28.9614 
4 *35:14 *1076:D 23 
*END

*D_NET *36 0.0193545
*CONN
*I *1077:D I *D sky130_fd_sc_hd__dfrtp_1
*I *1000:X O *D sky130_fd_sc_hd__o211a_1
*CAP
1 *1077:D 0.000261687
2 *1000:X 3.68641e-05
3 *36:24 0.00597216
4 *36:12 0.00574734
5 *1077:D *1077:RESET_B 0.000109607
6 *1077:D *83:18 0.000157002
7 *1077:D *118:22 3.7122e-06
8 *1077:D *192:96 3.18192e-05
9 *36:12 *119:37 2.46922e-05
10 *36:12 *160:18 7.58081e-05
11 *36:12 *168:16 1.92442e-05
12 *36:24 *83:18 2.77426e-05
13 *36:24 *86:51 0
14 *36:24 *102:45 0.00163096
15 *36:24 *112:96 0.000143757
16 *36:24 *112:117 0.000284678
17 *36:24 *129:24 9.96119e-06
18 *36:24 *130:26 0.000178196
19 *36:24 *131:22 0.000101548
20 *36:24 *146:148 0.000435522
21 *36:24 *162:14 9.23705e-06
22 *36:24 *167:18 0.000221856
23 *36:24 *187:14 0.000194197
24 *36:24 *197:33 4.51815e-05
25 *36:24 *205:55 8.58697e-05
26 *23:24 *36:24 0.00354581
*RES
1 *1000:X *36:12 46.42 
2 *36:12 *36:24 41.6739 
3 *36:24 *1077:D 43.3857 
*END

*D_NET *37 0.0120327
*CONN
*I *1078:D I *D sky130_fd_sc_hd__dfrtp_4
*I *1003:Y O *D sky130_fd_sc_hd__nor2_1
*CAP
1 *1078:D 0
2 *1003:Y 0.000905179
3 *37:14 0.00103981
4 *37:10 0.00212001
5 *37:6 0.00198538
6 *37:6 *211:35 0.00105703
7 *37:10 *987:A 0.000624942
8 *37:10 *40:12 0
9 *37:10 *59:12 0.000140615
10 *37:10 *59:18 9.63005e-05
11 *37:10 *112:30 0.000108151
12 *37:10 *162:54 0
13 *37:10 *175:63 0.000159904
14 *37:10 *183:145 0.000741418
15 *37:14 *961:A 6.59263e-05
16 *37:14 *974:A 0.000298423
17 *37:14 *974:B 5.79559e-05
18 *37:14 *103:84 5.79559e-05
19 *37:14 *138:6 0.00111274
20 *37:14 *146:103 7.53303e-06
21 *37:14 *148:10 3.135e-05
22 *37:14 *166:53 0.000282896
23 *37:14 *194:71 0.000477346
24 *22:18 *37:10 1.54492e-05
25 *33:8 *37:14 0.000646359
*RES
1 *1003:Y *37:6 35.0557 
2 *37:6 *37:10 40.1471 
3 *37:10 *37:14 42.3014 
4 *37:14 *1078:D 23 
*END

*D_NET *38 0.0141336
*CONN
*I *1079:D I *D sky130_fd_sc_hd__dfrtp_2
*I *1007:X O *D sky130_fd_sc_hd__buf_1
*CAP
1 *1079:D 0.000326257
2 *1007:X 0.000156349
3 *38:24 0.0056908
4 *38:12 0.0055209
5 *1079:D *1079:CLK 0.00026586
6 *38:12 *1076:CLK 0.000120728
7 *38:12 *48:20 0.000123239
8 *38:12 *171:24 2.75168e-05
9 *38:12 *200:35 1.21633e-05
10 *38:24 *1075:RESET_B 0
11 *38:24 *131:22 0.000220702
12 *38:24 *133:60 4.03215e-05
13 *38:24 *140:26 0.0012943
14 *38:24 *160:18 1.6986e-05
15 *38:24 *173:30 1.29418e-05
16 *38:24 *179:35 0.000158463
17 *38:24 *204:16 6.26708e-06
18 *38:24 *214:10 0.000139796
19 *11:21 *38:24 0
*RES
1 *1007:X *38:12 47.9144 
2 *38:12 *38:24 39.7736 
3 *38:24 *1079:D 43.5514 
*END

*D_NET *39 0.0088724
*CONN
*I *1080:D I *D sky130_fd_sc_hd__dfrtp_1
*I *1009:X O *D sky130_fd_sc_hd__o211a_1
*CAP
1 *1080:D 0
2 *1009:X 0.000913289
3 *39:14 0.0010843
4 *39:6 0.00199759
5 *39:6 *112:141 0.000942365
6 *39:6 *112:164 0.000138607
7 *39:6 *172:14 8.54716e-05
8 *39:6 *177:117 4.2573e-05
9 *39:6 *177:123 0.00021677
10 *39:6 *202:34 0.00013222
11 *39:6 *204:58 0.00161813
12 *39:14 *117:16 0.000842235
13 *39:14 *117:29 0.000814949
14 *39:14 *206:41 4.38956e-05
15 *39:14 *210:34 0
16 *39:14 *210:40 0
17 *39:14 *216:14 0
18 *39:14 *217:16 0
*RES
1 *1009:X *39:6 46.9664 
2 *39:6 *39:14 38.925 
3 *39:14 *1080:D 38 
*END

*D_NET *40 0.00835582
*CONN
*I *1056:D I *D sky130_fd_sc_hd__dfrtp_2
*I *922:X O *D sky130_fd_sc_hd__clkbuf_1
*CAP
1 *1056:D 0.000656704
2 *922:X 0.000490955
3 *40:12 0.00142328
4 *40:8 0.00125753
5 *1056:D *1091:A 0.000135037
6 *1056:D *63:8 3.55564e-05
7 *1056:D *84:27 2.43944e-05
8 *1056:D *89:20 0.000481197
9 *1056:D *127:12 0.00170901
10 *1056:D *176:97 5.3304e-05
11 *1056:D *183:77 9.64703e-05
12 *40:8 *922:A 0.000191394
13 *40:8 *157:8 0.000141954
14 *40:12 *987:A 7.00811e-05
15 *40:12 *59:12 0.000190068
16 *40:12 *59:18 0.000381883
17 *40:12 *81:16 8.52094e-06
18 *40:12 *84:12 0.000447141
19 *40:12 *162:54 0.000254563
20 *31:8 *40:12 0.000210916
21 *32:10 *40:8 9.58714e-05
22 *37:10 *40:12 0
*RES
1 *922:X *40:8 44.815 
2 *40:8 *40:12 33.4564 
3 *40:12 *1056:D 42.2021 
*END

*D_NET *41 0.013499
*CONN
*I *1057:D I *D sky130_fd_sc_hd__dfrtp_1
*I *925:X O *D sky130_fd_sc_hd__buf_1
*CAP
1 *1057:D 0.00109327
2 *925:X 0.000264486
3 *41:16 0.00216732
4 *41:10 0.00287545
5 *41:8 0.00206589
6 *1057:D *181:44 0.000587532
7 *1057:D *181:52 6.80001e-05
8 *1057:D *203:20 9.41704e-05
9 *41:8 *111:14 5.70007e-05
10 *41:10 *69:10 0.00153455
11 *41:10 *213:10 0
12 *41:16 *1097:A 0.000774277
13 *41:16 *108:14 0.000574568
14 *41:16 *138:22 0.00022034
15 *41:16 *177:57 0.000490927
16 *41:16 *177:117 0.000545217
17 *41:16 *181:44 1.24376e-05
18 *41:16 *207:18 7.35289e-05
*RES
1 *925:X *41:8 41.48 
2 *41:8 *41:10 43.8107 
3 *41:10 *41:16 41.3693 
4 *41:16 *1057:D 37.8211 
*END

*D_NET *42 0.00474407
*CONN
*I *1058:D I *D sky130_fd_sc_hd__dfrtp_2
*I *930:X O *D sky130_fd_sc_hd__clkbuf_1
*CAP
1 *1058:D 0
2 *930:X 0
3 *42:12 0.00141975
4 *42:6 0.00141975
5 *42:12 *130:14 0.000251601
6 *42:12 *145:10 0.000537761
7 *42:12 *177:80 0.00038749
8 *42:12 *202:26 0.000571224
9 *42:12 *214:130 0.000156484
*RES
1 *930:X *42:6 38 
2 *42:6 *42:12 45.3464 
3 *42:12 *1058:D 23 
*END

*D_NET *43 0.0148719
*CONN
*I *1059:D I *D sky130_fd_sc_hd__dfrtp_1
*I *933:Y O *D sky130_fd_sc_hd__nor3_1
*CAP
1 *1059:D 0
2 *933:Y 0
3 *43:24 0.00486299
4 *43:6 0.00486299
5 *43:24 *76:16 0.000406466
6 *43:24 *80:16 0.000942951
7 *43:24 *91:37 0
8 *43:24 *93:60 0.000670864
9 *43:24 *103:38 2.55744e-05
10 *43:24 *158:18 0.000199646
11 *43:24 *203:34 0.000197895
12 *43:24 *203:48 0.000232409
13 *43:24 *205:26 0.000191873
14 *11:21 *43:24 0.001744
15 *20:119 *43:24 0.00053425
*RES
1 *933:Y *43:6 38 
2 *43:6 *43:24 48.2738 
3 *43:24 *1059:D 38 
*END

*D_NET *44 0.00789633
*CONN
*I *1060:D I *D sky130_fd_sc_hd__dfrtp_2
*I *937:X O *D sky130_fd_sc_hd__clkbuf_1
*CAP
1 *1060:D 0.000114623
2 *937:X 0
3 *44:8 0.00280633
4 *44:4 0.0026917
5 *1060:D *187:47 0.000321842
6 *1060:D *195:12 0.000321842
7 *44:8 *1071:CLK 0.000164938
8 *44:8 *214:72 0.000116249
9 *1071:D *44:8 2.51697e-05
10 *28:6 *44:8 0.00133364
*RES
1 *937:X *44:4 23 
2 *44:4 *44:8 48.9714 
3 *44:8 *1060:D 42.3707 
*END

*D_NET *45 0.0101089
*CONN
*I *1061:D I *D sky130_fd_sc_hd__dfrtp_1
*I *939:Y O *D sky130_fd_sc_hd__a211oi_1
*CAP
1 *1061:D 0.000445707
2 *939:Y 2.89861e-05
3 *45:10 0.00223542
4 *45:8 0.0018187
5 *1061:D *155:39 0.000278991
6 *45:8 *188:61 5.82853e-05
7 *45:10 *1057:RESET_B 0.000787002
8 *45:10 *1074:RESET_B 0.000146486
9 *45:10 *51:24 7.94633e-05
10 *45:10 *56:10 0.000528197
11 *45:10 *103:102 0
12 *45:10 *126:37 0.000160704
13 *45:10 *132:14 0.000344271
14 *45:10 *137:20 0.000473919
15 *45:10 *162:38 2.23265e-05
16 *45:10 *168:16 4.4955e-05
17 *45:10 *168:26 0.000207768
18 *45:10 *175:14 7.55045e-05
19 *45:10 *194:95 3.35885e-06
20 *45:10 *195:63 4.51797e-05
21 *45:10 *195:73 0.000162656
22 *45:10 *199:18 8.02078e-06
23 *45:10 *201:34 2.45318e-05
24 *45:10 *201:40 0.00148631
25 *45:10 *204:8 4.46721e-05
26 *45:10 *204:43 5.90856e-07
27 *45:10 *219:10 0.000596918
*RES
1 *939:Y *45:8 38.6214 
2 *45:8 *45:10 42.7543 
3 *45:10 *1061:D 43.9295 
*END

*D_NET *46 0.011256
*CONN
*I *1062:D I *D sky130_fd_sc_hd__dfrtp_2
*I *943:X O *D sky130_fd_sc_hd__clkbuf_1
*CAP
1 *1062:D 0
2 *943:X 0.000669494
3 *46:26 0.000634587
4 *46:10 0.001551
5 *46:6 0.00158591
6 *46:6 *155:39 0.000802214
7 *46:6 *155:74 0.000301116
8 *46:6 *211:8 0.000304681
9 *46:10 *1066:CLK 1.39826e-05
10 *46:10 *63:18 0.000174183
11 *46:10 *106:14 0.000381627
12 *46:10 *112:18 0.00106137
13 *46:10 *112:39 0.000580952
14 *46:10 *124:10 6.16531e-05
15 *46:10 *162:26 6.74097e-05
16 *46:10 *183:61 0.00018014
17 *46:10 *183:77 0.000209242
18 *46:10 *196:16 0.000604253
19 *46:26 *97:8 0.00012797
20 *46:26 *146:124 8.48422e-05
21 *46:26 *162:38 5.3304e-05
22 *46:26 *162:48 9.77405e-05
23 *46:26 *176:6 0.000213731
24 *46:26 *176:14 6.70361e-05
25 *46:26 *177:16 0.00126036
26 *46:26 *201:40 0.000136738
27 *46:26 *201:50 3.04516e-05
*RES
1 *943:X *46:6 35.5321 
2 *46:6 *46:10 40.8514 
3 *46:10 *46:26 32.5864 
4 *46:26 *1062:D 23 
*END

*D_NET *47 0.0155684
*CONN
*I *1063:D I *D sky130_fd_sc_hd__dfrtp_2
*I *948:X O *D sky130_fd_sc_hd__buf_1
*CAP
1 *1063:D 0
2 *948:X 1.32668e-05
3 *47:20 0.00463163
4 *47:10 0.0046449
5 *47:10 *180:99 2.26406e-05
6 *47:10 *188:22 0
7 *47:20 *50:26 0.000145481
8 *47:20 *54:20 0.00251687
9 *47:20 *80:16 0
10 *47:20 *84:60 0.000116284
11 *47:20 *88:10 7.54991e-05
12 *47:20 *93:20 7.02942e-05
13 *47:20 *114:20 0.00011673
14 *47:20 *117:39 0.00055356
15 *47:20 *123:14 0.00145927
16 *47:20 *185:90 8.9458e-05
17 *47:20 *195:126 0.000118939
18 *47:20 *195:158 0
19 *47:20 *197:87 0
20 *47:20 *199:60 0.000223497
21 *47:20 *199:70 0.00077012
22 *47:20 *207:43 0
*RES
1 *948:X *47:10 46.3211 
2 *47:10 *47:20 43.6942 
3 *47:20 *1063:D 38 
*END

*D_NET *48 0.0114022
*CONN
*I *1053:RESET_B I *D sky130_fd_sc_hd__dfrtp_4
*I *1019:Y O *D sky130_fd_sc_hd__inv_2
*CAP
1 *1053:RESET_B 0.000891127
2 *1019:Y 0.000812143
3 *48:20 0.00185987
4 *48:14 0.00178089
5 *1053:RESET_B *59:18 0.000272947
6 *1053:RESET_B *84:27 0.000803103
7 *1053:RESET_B *99:18 0.00069137
8 *1053:RESET_B *165:12 6.30352e-05
9 *1053:RESET_B *179:10 0.000157147
10 *1053:RESET_B *179:14 8.87064e-05
11 *1053:RESET_B *191:94 1.40759e-05
12 *1053:RESET_B *204:16 0.000111987
13 *1053:RESET_B *204:26 0.000570422
14 *1053:RESET_B *214:10 6.09897e-05
15 *48:14 *1065:RESET_B 2.80924e-06
16 *48:14 *1076:CLK 3.56477e-05
17 *48:14 *71:26 0.000273057
18 *48:14 *175:115 0.000358816
19 *48:20 *1065:RESET_B 0
20 *48:20 *1076:CLK 0.000221994
21 *48:20 *59:18 0.000726445
22 *48:20 *165:12 2.85019e-05
23 *48:20 *175:103 0.000106092
24 *48:20 *180:10 8.50956e-05
25 *48:20 *180:21 0.000389368
26 *48:20 *180:32 0.000226584
27 *48:20 *180:43 0.000177292
28 *48:20 *180:45 0.00040492
29 *48:20 *193:36 0
30 *48:20 *215:14 0
31 *35:14 *48:14 6.45321e-05
32 *38:12 *48:20 0.000123239
*RES
1 *1019:Y *48:14 36.8164 
2 *48:14 *48:20 39.6604 
3 *48:20 *1053:RESET_B 39.1425 
*END

*D_NET *49 0.0118726
*CONN
*I *1054:RESET_B I *D sky130_fd_sc_hd__dfrtp_4
*I *1020:Y O *D sky130_fd_sc_hd__inv_2
*CAP
1 *1054:RESET_B 0.000263202
2 *1020:Y 5.10734e-05
3 *49:26 0.00268718
4 *49:16 0.00333343
5 *49:8 0.000960533
6 *1054:RESET_B *122:20 3.04338e-05
7 *1054:RESET_B *129:24 6.28098e-05
8 *1054:RESET_B *146:148 0.000283513
9 *1054:RESET_B *202:10 0.000347875
10 *49:8 *1020:A 7.61229e-06
11 *49:8 *68:14 3.28925e-06
12 *49:16 *1071:RESET_B 0.000189716
13 *49:16 *55:10 0.000122619
14 *49:16 *61:22 0.00146555
15 *49:16 *115:24 0.000307776
16 *49:16 *202:26 0.000891312
17 *49:26 *1072:CLK 0.000210354
18 *49:26 *1072:RESET_B 3.34999e-05
19 *49:26 *144:18 4.90702e-05
20 *49:26 *196:89 0.000176747
21 *49:26 *198:33 1.31115e-05
22 *49:26 *198:37 0.000284104
23 *25:6 *49:26 9.77405e-05
*RES
1 *1020:Y *49:8 38.6214 
2 *49:8 *49:16 42.3221 
3 *49:16 *49:26 45.8229 
4 *49:26 *1054:RESET_B 21.1314 
*END

*D_NET *50 0.0222068
*CONN
*I *1055:RESET_B I *D sky130_fd_sc_hd__dfrtp_4
*I *1021:Y O *D sky130_fd_sc_hd__inv_2
*CAP
1 *1055:RESET_B 0.000770772
2 *1021:Y 0.000143556
3 *50:26 0.00742214
4 *50:12 0.00679493
5 *1055:RESET_B *80:16 6.10551e-06
6 *1055:RESET_B *117:59 0.000271741
7 *1055:RESET_B *154:52 2.52012e-05
8 *50:12 *168:16 0.000131325
9 *50:12 *173:72 0.000148958
10 *50:12 *175:157 2.26406e-05
11 *50:12 *218:16 5.58152e-06
12 *50:26 *1075:RESET_B 0
13 *50:26 *54:20 0.000922487
14 *50:26 *62:22 0.000521042
15 *50:26 *93:20 0.000613063
16 *50:26 *93:30 0.000535953
17 *50:26 *131:22 0.000666628
18 *50:26 *148:29 4.96824e-05
19 *50:26 *201:24 2.03754e-05
20 *50:26 *203:60 0.000212674
21 *23:24 *50:26 0.00277646
22 *47:20 *50:26 0.000145481
*RES
1 *1021:Y *50:12 46.8493 
2 *50:12 *50:26 49.0875 
3 *50:26 *1055:RESET_B 25.2232 
*END

*D_NET *51 0.0102621
*CONN
*I *1056:RESET_B I *D sky130_fd_sc_hd__dfrtp_2
*I *1022:Y O *D sky130_fd_sc_hd__inv_2
*CAP
1 *1056:RESET_B 0.000564927
2 *1022:Y 5.05524e-05
3 *51:24 0.00114909
4 *51:18 0.00221788
5 *51:8 0.00168427
6 *1056:RESET_B *1012:A 0.000313028
7 *1056:RESET_B *52:6 5.56279e-05
8 *1056:RESET_B *79:14 2.06822e-05
9 *1056:RESET_B *168:26 0.000137525
10 *1056:RESET_B *183:139 0.000103089
11 *1056:RESET_B *185:57 8.65242e-05
12 *1056:RESET_B *186:29 0.000132039
13 *1056:RESET_B *211:14 2.43567e-05
14 *51:8 *1022:A 3.7122e-06
15 *51:18 *948:A 8.15864e-05
16 *51:18 *83:10 0
17 *51:18 *91:54 1.47372e-05
18 *51:18 *93:94 0.00100742
19 *51:18 *148:41 6.32706e-05
20 *51:18 *149:16 0
21 *51:18 *180:99 0
22 *51:18 *188:14 0
23 *51:18 *188:22 0.000327884
24 *51:18 *188:102 0
25 *51:18 *191:86 0.000185843
26 *51:18 *197:55 4.85776e-05
27 *51:24 *56:10 0.000528197
28 *51:24 *132:14 4.84293e-05
29 *51:24 *162:14 1.01436e-05
30 *51:24 *162:38 4.08379e-06
31 *51:24 *168:26 0.000209925
32 *51:24 *178:33 2.33476e-05
33 *51:24 *178:44 0.00107672
34 *1075:D *51:8 9.21352e-06
35 *45:10 *51:24 7.94633e-05
*RES
1 *1022:Y *51:8 38.6214 
2 *51:8 *51:18 44.4557 
3 *51:18 *51:24 45.6393 
4 *51:24 *1056:RESET_B 40.15 
*END

*D_NET *52 0.00892072
*CONN
*I *1057:RESET_B I *D sky130_fd_sc_hd__dfrtp_1
*I *1023:Y O *D sky130_fd_sc_hd__inv_2
*CAP
1 *1057:RESET_B 0.000790645
2 *1023:Y 0.00204736
3 *52:6 0.002838
4 *1057:RESET_B *89:20 0.000463753
5 *1057:RESET_B *162:38 0.000138662
6 *1057:RESET_B *170:18 0.000677797
7 *1057:RESET_B *207:12 0.000135823
8 *52:6 *1023:A 0.000329409
9 *52:6 *175:63 0.000104527
10 *52:6 *179:10 0.000135037
11 *52:6 *183:139 0.000417072
12 *1056:RESET_B *52:6 5.56279e-05
13 *45:10 *1057:RESET_B 0.000787002
*RES
1 *1023:Y *52:6 48.8721 
2 *52:6 *1057:RESET_B 48.7568 
*END

*D_NET *53 0.0132177
*CONN
*I *1058:RESET_B I *D sky130_fd_sc_hd__dfrtp_2
*I *1024:Y O *D sky130_fd_sc_hd__inv_2
*CAP
1 *1058:RESET_B 0.000341853
2 *1024:Y 7.89643e-05
3 *53:22 0.00306998
4 *53:8 0.00280709
5 *1058:RESET_B *93:120 4.90004e-05
6 *1058:RESET_B *208:8 0.000130774
7 *1058:RESET_B *208:93 4.19535e-05
8 *53:8 *222:8 0.000138859
9 *53:22 *991:A 1.83142e-05
10 *53:22 *1073:RESET_B 0.000138147
11 *53:22 *64:10 0.000195321
12 *53:22 *70:16 0.000185638
13 *53:22 *103:66 0.000373571
14 *53:22 *140:26 0.000483134
15 *53:22 *146:70 0.000232443
16 *53:22 *146:78 3.7554e-05
17 *53:22 *146:80 7.83704e-05
18 *53:22 *146:90 1.28726e-05
19 *53:22 *167:32 0.0029878
20 *53:22 *177:20 4.41394e-05
21 *53:22 *183:145 0.00053834
22 *53:22 *194:71 0.000387147
23 *53:22 *201:56 0.000825698
24 *53:22 *220:10 2.07642e-05
*RES
1 *1024:Y *53:8 39.5743 
2 *53:8 *53:22 44.8701 
3 *53:22 *1058:RESET_B 20.7896 
*END

*D_NET *54 0.0178386
*CONN
*I *1059:RESET_B I *D sky130_fd_sc_hd__dfrtp_1
*I *1025:Y O *D sky130_fd_sc_hd__inv_2
*CAP
1 *1059:RESET_B 0.000416639
2 *1025:Y 0.000275241
3 *54:20 0.00530662
4 *54:8 0.00516522
5 *1059:RESET_B *890:B 1.32728e-05
6 *1059:RESET_B *93:108 0
7 *1059:RESET_B *103:52 3.52392e-05
8 *1059:RESET_B *182:40 0.000169981
9 *1059:RESET_B *185:43 0.000158643
10 *1059:RESET_B *189:61 0.000166869
11 *1059:RESET_B *192:59 0
12 *54:8 *1025:A 5.91417e-06
13 *54:20 *76:16 0.00119536
14 *54:20 *80:16 0
15 *54:20 *93:108 0
16 *54:20 *98:12 0
17 *54:20 *117:59 0.000182344
18 *54:20 *182:40 9.92307e-06
19 *54:20 *189:43 0.000223556
20 *54:20 *195:126 0.000241409
21 *54:20 *198:16 0.000788546
22 *54:20 *203:60 4.4449e-05
23 *47:20 *54:20 0.00251687
24 *50:26 *54:20 0.000922487
*RES
1 *1025:Y *54:8 41.48 
2 *54:8 *54:20 46.2915 
3 *54:20 *1059:RESET_B 22.7161 
*END

*D_NET *55 0.00730956
*CONN
*I *1060:RESET_B I *D sky130_fd_sc_hd__dfrtp_2
*I *1026:Y O *D sky130_fd_sc_hd__inv_2
*CAP
1 *1060:RESET_B 0.000749407
2 *1026:Y 0
3 *55:10 0.00181133
4 *55:6 0.00106192
5 *1060:RESET_B *86:93 0.00010091
6 *1060:RESET_B *112:130 0.000223085
7 *55:10 *1067:RESET_B 7.83014e-05
8 *55:10 *61:22 0.00186321
9 *55:10 *65:10 0.000789516
10 *55:10 *115:24 0.000476005
11 *55:10 *139:14 0
12 *55:10 *142:16 0
13 *55:10 *191:105 2.85501e-06
14 *55:10 *194:27 3.04021e-05
15 *49:16 *55:10 0.000122619
*RES
1 *1026:Y *55:6 38 
2 *55:6 *55:10 44.3729 
3 *55:10 *1060:RESET_B 9.76679 
*END

*D_NET *56 0.00212129
*CONN
*I *1061:RESET_B I *D sky130_fd_sc_hd__dfrtp_1
*I *1027:Y O *D sky130_fd_sc_hd__inv_2
*CAP
1 *1061:RESET_B 0
2 *1027:Y 0.000387047
3 *56:10 0.000387047
4 *56:10 *162:26 0.000175903
5 *56:10 *168:30 0.000114896
6 *45:10 *56:10 0.000528197
7 *51:24 *56:10 0.000528197
*RES
1 *1027:Y *56:10 48.0671 
2 *56:10 *1061:RESET_B 15 
*END

*D_NET *57 0.00535495
*CONN
*I *1062:RESET_B I *D sky130_fd_sc_hd__dfrtp_2
*I *1028:Y O *D sky130_fd_sc_hd__inv_2
*CAP
1 *1062:RESET_B 0.00078906
2 *1028:Y 0.000574418
3 *57:6 0.00136348
4 *1062:RESET_B *87:69 0.00019198
5 *1062:RESET_B *131:28 1.18379e-05
6 *1062:RESET_B *164:18 0.000683656
7 *1062:RESET_B *175:28 0
8 *1062:RESET_B *184:10 0.000257301
9 *1062:RESET_B *184:16 2.44846e-05
10 *1062:RESET_B *212:14 0.000238982
11 *1062:RESET_B *213:28 0.000151674
12 *57:6 *995:A 3.18142e-05
13 *57:6 *995:B 0.00028632
14 *57:6 *121:14 0.00015022
15 *57:6 *131:28 0.000323904
16 *57:6 *175:28 9.80703e-06
17 *20:32 *1062:RESET_B 4.88572e-05
18 *20:32 *57:6 0.000100486
19 *35:10 *1062:RESET_B 0.000116673
*RES
1 *1028:Y *57:6 35.0557 
2 *57:6 *1062:RESET_B 49.0261 
*END

*D_NET *58 0.00172702
*CONN
*I *1063:RESET_B I *D sky130_fd_sc_hd__dfrtp_2
*I *1030:Y O *D sky130_fd_sc_hd__inv_2
*CAP
1 *1063:RESET_B 0.000523244
2 *1030:Y 0.000523244
3 *1063:RESET_B *902:D 5.50106e-05
4 *1063:RESET_B *1063:CLK 0.000344292
5 *1063:RESET_B *88:14 9.88574e-06
6 *1063:RESET_B *182:85 0.0002263
7 *1063:RESET_B *198:103 4.50413e-05
*RES
1 *1030:Y *1063:RESET_B 33.7196 
*END

*D_NET *59 0.00876142
*CONN
*I *1064:RESET_B I *D sky130_fd_sc_hd__dfrtp_4
*I *1031:Y O *D sky130_fd_sc_hd__inv_2
*CAP
1 *1064:RESET_B 0
2 *1031:Y 0.000487075
3 *59:18 0.00166986
4 *59:12 0.00215693
5 *59:12 *987:A 0.000335993
6 *59:12 *201:50 0.000180849
7 *59:18 *99:18 0.000696453
8 *59:18 *112:30 4.68559e-05
9 *59:18 *127:12 0.000128858
10 *59:18 *134:12 0.000263733
11 *59:18 *134:18 0.000614286
12 *59:18 *179:10 9.80123e-05
13 *59:18 *179:14 4.92637e-06
14 *59:18 *193:36 5.63118e-05
15 *59:18 *215:14 0
16 *1053:RESET_B *59:18 0.000272947
17 *22:18 *59:18 0
18 *31:8 *59:12 0.000213016
19 *37:10 *59:12 0.000140615
20 *37:10 *59:18 9.63005e-05
21 *40:12 *59:12 0.000190068
22 *40:12 *59:18 0.000381883
23 *48:20 *59:18 0.000726445
*RES
1 *1031:Y *59:12 49.4446 
2 *59:12 *59:18 37.8554 
3 *59:18 *1064:RESET_B 15 
*END

*D_NET *60 0.00631362
*CONN
*I *1065:RESET_B I *D sky130_fd_sc_hd__dfrtp_2
*I *1032:Y O *D sky130_fd_sc_hd__inv_2
*CAP
1 *1065:RESET_B 0.00176581
2 *1032:Y 0.000499445
3 *60:8 0.00226525
4 *1065:RESET_B *1076:CLK 0
5 *1065:RESET_B *1076:RESET_B 4.88664e-05
6 *1065:RESET_B *71:26 0.000342568
7 *1065:RESET_B *152:26 0.000128467
8 *1065:RESET_B *171:24 0
9 *1065:RESET_B *175:103 4.65949e-05
10 *1065:RESET_B *175:115 0.000483489
11 *60:8 *102:22 1.94812e-05
12 *60:8 *176:71 3.3577e-05
13 *60:8 *215:10 0.000146631
14 *35:14 *1065:RESET_B 0.000530627
15 *48:14 *1065:RESET_B 2.80924e-06
16 *48:20 *1065:RESET_B 0
*RES
1 *1032:Y *60:8 45.2914 
2 *60:8 *1065:RESET_B 46.7032 
*END

*D_NET *61 0.0111396
*CONN
*I *1066:RESET_B I *D sky130_fd_sc_hd__dfrtp_1
*I *1033:Y O *D sky130_fd_sc_hd__inv_2
*CAP
1 *1066:RESET_B 0.000407348
2 *1033:Y 8.81957e-05
3 *61:22 0.00266162
4 *61:8 0.00234247
5 *1066:RESET_B *181:92 5.12927e-05
6 *1066:RESET_B *181:100 0.000220152
7 *1066:RESET_B *212:56 0.000340079
8 *61:8 *187:43 9.41704e-05
9 *61:22 *1071:RESET_B 0.00058746
10 *61:22 *91:27 0
11 *61:22 *103:175 0.000262397
12 *61:22 *115:24 9.0114e-05
13 *61:22 *203:34 3.37904e-05
14 *61:22 *205:12 0.000268766
15 *61:22 *205:26 0.000362984
16 *49:16 *61:22 0.00146555
17 *55:10 *61:22 0.00186321
*RES
1 *1033:Y *61:8 39.0979 
2 *61:8 *61:22 48.3888 
3 *61:22 *1066:RESET_B 22.6954 
*END

*D_NET *62 0.0197678
*CONN
*I *1067:RESET_B I *D sky130_fd_sc_hd__dfrtp_4
*I *1034:Y O *D sky130_fd_sc_hd__inv_2
*CAP
1 *1067:RESET_B 2.36254e-05
2 *1034:Y 3.83793e-05
3 *62:22 0.0046322
4 *62:14 0.0059976
5 *62:8 0.0014274
6 *1067:RESET_B *142:16 2.55515e-05
7 *62:8 *945:A 5.67058e-05
8 *62:14 *94:10 8.4047e-05
9 *62:14 *94:20 3.83778e-05
10 *62:14 *94:37 0.00138385
11 *62:14 *166:65 7.70232e-05
12 *62:14 *168:30 8.95812e-05
13 *62:14 *175:67 7.87877e-05
14 *62:14 *200:18 0.00114079
15 *62:22 *93:20 0.000232308
16 *62:22 *93:30 0.000110156
17 *62:22 *115:24 1.41966e-05
18 *62:22 *117:47 0.000529514
19 *62:22 *131:22 0
20 *62:22 *140:26 0
21 *62:22 *148:29 1.03597e-05
22 *62:22 *148:41 0.000383017
23 *62:22 *155:51 2.93791e-05
24 *62:22 *175:80 0.000481072
25 *62:22 *184:74 9.28029e-05
26 *62:22 *196:62 0.000124959
27 *62:22 *201:24 8.49526e-05
28 *62:22 *203:60 5.03571e-05
29 *62:22 *214:96 0.000205763
30 *1003:A *62:14 0.000597625
31 *22:18 *62:22 0.00112808
32 *50:26 *62:22 0.000521042
33 *55:10 *1067:RESET_B 7.83014e-05
*RES
1 *1034:Y *62:8 38.6214 
2 *62:8 *62:14 46.4443 
3 *62:14 *62:22 47.458 
4 *62:22 *1067:RESET_B 24.0254 
*END

*D_NET *63 0.0151066
*CONN
*I *1068:RESET_B I *D sky130_fd_sc_hd__dfrtp_2
*I *1035:Y O *D sky130_fd_sc_hd__inv_2
*CAP
1 *1068:RESET_B 0.00075039
2 *1035:Y 0.000128075
3 *63:18 0.00331919
4 *63:8 0.00269687
5 *1068:RESET_B *181:28 0.000759145
6 *1068:RESET_B *192:10 0.000270337
7 *63:8 *176:97 7.51453e-06
8 *63:8 *183:77 5.5792e-05
9 *63:18 *70:16 0
10 *63:18 *106:14 0.000768082
11 *63:18 *119:24 0.000621893
12 *63:18 *151:12 0.000223222
13 *63:18 *166:65 7.0811e-05
14 *63:18 *171:12 9.31402e-05
15 *63:18 *195:73 0
16 *63:18 *196:16 0.00180607
17 *63:18 *204:8 0
18 *63:18 *220:24 5.58534e-05
19 *63:18 *221:22 0.00296626
20 *1056:D *63:8 3.55564e-05
21 *26:24 *63:18 0.000171893
22 *27:24 *63:18 0.000132304
23 *46:10 *63:18 0.000174183
*RES
1 *1035:Y *63:8 40.0507 
2 *63:8 *63:18 49.8325 
3 *63:18 *1068:RESET_B 27.6254 
*END

*D_NET *64 0.0118765
*CONN
*I *1069:RESET_B I *D sky130_fd_sc_hd__dfrtp_1
*I *1036:Y O *D sky130_fd_sc_hd__inv_2
*CAP
1 *1069:RESET_B 0.000129464
2 *1036:Y 0.00144856
3 *64:10 0.00162988
4 *64:8 0.00150042
5 *64:6 0.00144856
6 *1069:RESET_B *949:A 0.000147236
7 *1069:RESET_B *949:B 5.56356e-05
8 *1069:RESET_B *119:24 4.36616e-05
9 *1069:RESET_B *188:71 0.000484538
10 *1069:RESET_B *196:41 8.83763e-05
11 *64:6 *909:A2 0.000612076
12 *64:6 *67:10 0.000341983
13 *64:10 *1073:RESET_B 7.78508e-05
14 *64:10 *79:28 0.000124405
15 *64:10 *94:50 7.18672e-05
16 *64:10 *129:10 0.000207821
17 *64:10 *141:22 0.00191978
18 *64:10 *173:60 8.30566e-06
19 *64:10 *190:14 2.84641e-05
20 *64:10 *193:16 4.35173e-05
21 *64:10 *203:20 4.62856e-05
22 *64:10 *212:56 0.000155216
23 *64:10 *215:40 5.43589e-05
24 *64:10 *215:55 0.000974728
25 *64:10 *220:10 3.82032e-05
26 *53:22 *64:10 0.000195321
*RES
1 *1036:Y *64:6 40.7729 
2 *64:6 *64:8 15 
3 *64:8 *64:10 35.0071 
4 *64:10 *1069:RESET_B 20.3132 
*END

*D_NET *65 0.00662803
*CONN
*I *1070:RESET_B I *D sky130_fd_sc_hd__dfrtp_4
*I *1037:Y O *D sky130_fd_sc_hd__inv_2
*CAP
1 *1070:RESET_B 0.000231973
2 *1037:Y 0
3 *65:10 0.00162446
4 *65:6 0.00139249
5 *1070:RESET_B *90:20 0.000304686
6 *1070:RESET_B *176:118 1.87414e-05
7 *65:10 *112:164 0.000614248
8 *65:10 *119:37 0
9 *65:10 *139:14 0.00035067
10 *65:10 *158:26 3.4777e-05
11 *65:10 *164:37 7.90338e-05
12 *65:10 *175:153 6.12496e-06
13 *65:10 *175:157 0.000484485
14 *65:10 *176:46 0.000629614
15 *65:10 *177:57 3.9827e-05
16 *65:10 *194:27 2.73782e-05
17 *65:10 *202:26 0
18 *55:10 *65:10 0.000789516
*RES
1 *1037:Y *65:6 38 
2 *65:6 *65:10 49.3029 
3 *65:10 *1070:RESET_B 3.88393 
*END

*D_NET *66 0.00666897
*CONN
*I *1071:RESET_B I *D sky130_fd_sc_hd__dfrtp_4
*I *1038:Y O *D sky130_fd_sc_hd__inv_2
*CAP
1 *1071:RESET_B 0.000563376
2 *1038:Y 4.79916e-05
3 *66:14 0.00185881
4 *66:8 0.00134343
5 *1071:RESET_B *112:130 3.25485e-05
6 *1071:RESET_B *115:24 1.18379e-05
7 *1071:RESET_B *192:121 0.000478862
8 *1071:RESET_B *200:64 7.71349e-05
9 *1071:RESET_B *202:26 1.71418e-05
10 *1071:RESET_B *202:51 0.000564706
11 *66:8 *114:30 8.27131e-05
12 *66:8 *214:113 8.25811e-05
13 *66:14 *931:B1 0.000165198
14 *66:14 *1083:RESET_B 0.000265606
15 *66:14 *199:58 0.00029985
16 *49:16 *1071:RESET_B 0.000189716
17 *61:22 *1071:RESET_B 0.00058746
*RES
1 *1038:Y *66:8 39.2014 
2 *66:8 *66:14 47.7729 
3 *66:14 *1071:RESET_B 30.6393 
*END

*D_NET *67 0.0077328
*CONN
*I *1072:RESET_B I *D sky130_fd_sc_hd__dfrtp_4
*I *1039:Y O *D sky130_fd_sc_hd__inv_2
*CAP
1 *1072:RESET_B 0.000100104
2 *1039:Y 0.00079392
3 *67:16 0.000881119
4 *67:10 0.00157494
5 *1072:RESET_B *198:33 0.000169684
6 *67:10 *905:B 9.41704e-05
7 *67:10 *905:C 2.64616e-05
8 *67:10 *909:A2 1.32314e-05
9 *67:10 *84:56 0.000513538
10 *67:10 *85:8 0.000268339
11 *67:10 *95:55 1.56762e-05
12 *67:10 *193:22 2.62948e-05
13 *67:10 *212:62 0.000453347
14 *67:16 *905:B 0.000239243
15 *67:16 *79:28 0
16 *67:16 *135:16 0.000110913
17 *67:16 *155:51 0.00071158
18 *67:16 *192:82 0.000889512
19 *67:16 *192:86 0.000274179
20 *67:16 *197:33 0.000141553
21 *67:16 *208:34 0
22 *30:12 *67:16 5.95172e-05
23 *49:26 *1072:RESET_B 3.34999e-05
24 *64:6 *67:10 0.000341983
*RES
1 *1039:Y *67:10 38.08 
2 *67:10 *67:16 49.865 
3 *67:16 *1072:RESET_B 1.97821 
*END

*D_NET *68 0.0101345
*CONN
*I *1073:RESET_B I *D sky130_fd_sc_hd__dfrtp_2
*I *1041:Y O *D sky130_fd_sc_hd__inv_2
*CAP
1 *1073:RESET_B 0.000493564
2 *1041:Y 0.000448177
3 *68:14 0.00252943
4 *68:8 0.00248405
5 *1073:RESET_B *106:8 0.000198809
6 *1073:RESET_B *184:103 0.000136743
7 *1073:RESET_B *190:14 9.1463e-05
8 *1073:RESET_B *197:8 5.56279e-05
9 *1073:RESET_B *220:10 0.000111941
10 *68:8 *172:14 0.000558459
11 *68:14 *1020:A 1.47795e-05
12 *68:14 *1026:A 3.20631e-05
13 *68:14 *1093:A 2.42041e-05
14 *68:14 *175:157 0.000529239
15 *68:14 *183:77 0.00057459
16 *68:14 *183:111 0.000517104
17 *68:14 *192:41 5.85822e-06
18 *68:14 *202:26 0.00110915
19 *49:8 *68:14 3.28925e-06
20 *53:22 *1073:RESET_B 0.000138147
21 *64:10 *1073:RESET_B 7.78508e-05
*RES
1 *1041:Y *68:8 44.3386 
2 *68:8 *68:14 49.9657 
3 *68:14 *1073:RESET_B 40.1604 
*END

*D_NET *69 0.0204845
*CONN
*I *1074:RESET_B I *D sky130_fd_sc_hd__dfrtp_2
*I *1042:Y O *D sky130_fd_sc_hd__inv_2
*CAP
1 *1074:RESET_B 0.00318047
2 *1042:Y 0.000216424
3 *69:10 0.00507212
4 *69:8 0.00210808
5 *1074:RESET_B *949:B 6.93518e-05
6 *1074:RESET_B *78:28 0.00127735
7 *1074:RESET_B *86:51 0.000235608
8 *1074:RESET_B *86:59 0.00208014
9 *1074:RESET_B *109:12 9.87447e-06
10 *1074:RESET_B *126:47 7.91124e-05
11 *1074:RESET_B *173:72 0.000415271
12 *1074:RESET_B *177:148 0.00156682
13 *1074:RESET_B *188:61 9.86569e-05
14 *1074:RESET_B *199:18 0.000319651
15 *1074:RESET_B *221:22 0
16 *69:10 *74:14 0
17 *69:10 *205:10 5.03902e-05
18 *69:10 *213:10 0.00154312
19 *69:10 *220:37 3.72716e-05
20 an[3] *69:10 2.26497e-05
21 an[4] *69:10 2.26497e-05
22 an[5] *69:10 2.26497e-05
23 an[6] *69:10 4.9808e-05
24 seg[1] *69:10 2.26497e-05
25 seg[2] *69:10 2.26497e-05
26 seg[3] *69:10 2.26497e-05
27 seg[4] *1074:RESET_B 2.01445e-05
28 seg[4] *69:10 2.26497e-05
29 seg[5] *1074:RESET_B 4.69626e-06
30 *21:18 *69:8 2.45549e-06
31 *26:24 *1074:RESET_B 0.000208066
32 *41:10 *69:10 0.00153455
33 *45:10 *1074:RESET_B 0.000146486
*RES
1 *1042:Y *69:8 40.5271 
2 *69:8 *69:10 55.9596 
3 *69:10 *1074:RESET_B 47.6361 
*END

*D_NET *70 0.0260707
*CONN
*I *1075:RESET_B I *D sky130_fd_sc_hd__dfrtp_2
*I *1043:Y O *D sky130_fd_sc_hd__inv_2
*CAP
1 *1075:RESET_B 0.00480586
2 *1043:Y 2.63899e-05
3 *70:16 0.00968105
4 *70:8 0.00490157
5 *1075:RESET_B *92:14 8.05535e-05
6 *1075:RESET_B *101:18 2.04785e-05
7 *1075:RESET_B *131:22 0
8 *1075:RESET_B *133:75 0.000129945
9 *1075:RESET_B *161:20 4.57385e-05
10 *1075:RESET_B *176:71 7.13256e-05
11 *70:8 *921:C 8.26478e-05
12 *70:8 *181:28 0.000145171
13 *70:16 *1043:A 0
14 *70:16 *76:14 0.000620368
15 *70:16 *107:10 0
16 *70:16 *130:14 0.000335386
17 *70:16 *140:26 0.00347728
18 *70:16 *167:32 3.36345e-05
19 *70:16 *167:43 9.21116e-05
20 *70:16 *177:123 0
21 *70:16 *195:63 4.40029e-05
22 *70:16 *198:51 0.000291869
23 *70:16 *213:14 0.000343586
24 *70:16 *213:28 0.000351275
25 *70:16 *218:16 0.000304835
26 *11:21 *1075:RESET_B 0
27 *38:24 *1075:RESET_B 0
28 *50:26 *1075:RESET_B 0
29 *53:22 *70:16 0.000185638
30 *63:18 *70:16 0
*RES
1 *1043:Y *70:8 39.5743 
2 *70:8 *70:16 45.6539 
3 *70:16 *1075:RESET_B 43.6985 
*END

*D_NET *71 0.0119328
*CONN
*I *1076:RESET_B I *D sky130_fd_sc_hd__dfrtp_2
*I *1044:Y O *D sky130_fd_sc_hd__inv_2
*CAP
1 *1076:RESET_B 1.46768e-05
2 *1044:Y 0.00106215
3 *71:26 0.00117975
4 *71:12 0.00183495
5 *71:6 0.00173203
6 *1076:RESET_B *175:115 4.88664e-05
7 *71:6 *198:37 0.000847038
8 *71:12 *182:28 5.61991e-05
9 *71:12 *182:72 0.000271037
10 *71:12 *182:81 9.93833e-05
11 *71:12 *182:109 6.83037e-05
12 *71:26 *115:14 0.0011464
13 *71:26 *151:24 0.000110155
14 *71:26 *171:24 0.000136959
15 *71:26 *175:115 0.000314211
16 *71:26 *176:153 4.5051e-05
17 *71:26 *182:109 0.00106573
18 *71:26 *197:79 4.17869e-05
19 *71:26 *201:74 2.36182e-05
20 *1065:RESET_B *1076:RESET_B 4.88664e-05
21 *1065:RESET_B *71:26 0.000342568
22 *29:16 *71:12 0.00109449
23 *30:6 *71:26 7.5514e-05
24 *48:14 *71:26 0.000273057
*RES
1 *1044:Y *71:6 36.485 
2 *71:6 *71:12 45.6393 
3 *71:12 *71:26 47.6457 
4 *71:26 *1076:RESET_B 15.5489 
*END

*D_NET *72 0.00306017
*CONN
*I *1077:RESET_B I *D sky130_fd_sc_hd__dfrtp_1
*I *1045:Y O *D sky130_fd_sc_hd__inv_2
*CAP
1 *1077:RESET_B 0.000464081
2 *1045:Y 0.000464081
3 *1077:RESET_B *907:D 1.16872e-05
4 *1077:RESET_B *1025:A 0.000359949
5 *1077:RESET_B *1077:CLK 0.000105913
6 *1077:RESET_B *98:6 2.79662e-05
7 *1077:RESET_B *154:44 0.000222899
8 *1077:RESET_B *165:8 3.40414e-05
9 *1077:RESET_B *175:103 0.000211266
10 *1077:RESET_B *191:94 0.000224649
11 *1077:RESET_B *192:96 0.000811834
12 *1077:RESET_B *197:55 1.21972e-05
13 *1077:D *1077:RESET_B 0.000109607
*RES
1 *1045:Y *1077:RESET_B 38.7946 
*END

*D_NET *73 0.016691
*CONN
*I *1078:RESET_B I *D sky130_fd_sc_hd__dfrtp_4
*I *1046:Y O *D sky130_fd_sc_hd__inv_2
*CAP
1 *1078:RESET_B 0.00255638
2 *1046:Y 0.000294085
3 *73:16 0.00402172
4 *73:8 0.00175943
5 *1078:RESET_B *160:18 0.00019074
6 *1078:RESET_B *166:65 0.000457443
7 *1078:RESET_B *168:16 0.00119912
8 *1078:RESET_B *184:54 0.000150153
9 *1078:RESET_B *199:18 8.58995e-05
10 *1078:RESET_B *204:43 0.00114391
11 *1078:RESET_B *220:10 0.000276094
12 *73:8 *1046:A 0.00011451
13 *73:16 *80:16 0.000380924
14 *73:16 *91:37 0.00067065
15 *73:16 *131:28 0.000396255
16 *73:16 *190:52 0.000143432
17 *73:16 *213:39 0.000217939
18 *11:21 *1078:RESET_B 0.000850534
19 *20:18 *1078:RESET_B 7.72716e-05
20 *22:14 *73:16 6.16906e-05
21 *35:10 *73:16 0.00164277
*RES
1 *1046:Y *73:8 41.9564 
2 *73:8 *73:16 47.5954 
3 *73:16 *1078:RESET_B 33.7678 
*END

*D_NET *74 0.0177968
*CONN
*I *1079:RESET_B I *D sky130_fd_sc_hd__dfrtp_2
*I *1047:Y O *D sky130_fd_sc_hd__inv_2
*CAP
1 *1079:RESET_B 0.000850746
2 *1047:Y 9.52473e-05
3 *74:14 0.00511276
4 *74:8 0.00435726
5 *1079:RESET_B *126:47 0.000352303
6 *1079:RESET_B *173:18 0.000517453
7 *1079:RESET_B *186:29 0.000138321
8 *1079:RESET_B *195:73 0.000300867
9 *1079:RESET_B *196:26 2.69681e-05
10 *74:14 *108:8 5.12605e-05
11 *74:14 *126:61 0.0003291
12 *74:14 *155:84 3.85066e-05
13 *74:14 *168:16 0.000294852
14 *74:14 *173:72 0
15 *74:14 *177:80 0.000825627
16 *74:14 *187:85 0.000149214
17 *74:14 *199:80 0
18 *74:14 *204:43 0.000440336
19 *74:14 *205:55 0.000105945
20 *74:14 *210:34 0
21 *74:14 *210:55 0.00368047
22 *74:14 *213:10 0
23 *74:14 *213:14 2.60386e-05
24 *74:14 *213:28 1.05243e-05
25 *74:14 *216:14 0
26 *74:14 *217:16 0
27 seg[0] *74:14 2.42807e-05
28 *20:18 *1079:RESET_B 6.87317e-05
29 *69:10 *74:14 0
*RES
1 *1047:Y *74:8 39.0979 
2 *74:8 *74:14 44.0102 
3 *74:14 *1079:RESET_B 41.415 
*END

*D_NET *75 0.00429136
*CONN
*I *1080:RESET_B I *D sky130_fd_sc_hd__dfrtp_1
*I *1048:Y O *D sky130_fd_sc_hd__inv_2
*CAP
1 *1080:RESET_B 0.000720866
2 *1048:Y 0.000630751
3 *75:8 0.00135162
4 *1080:RESET_B *1080:CLK 4.67488e-05
5 *1080:RESET_B *110:12 0.000178225
6 *1080:RESET_B *117:29 0.000310463
7 *1080:RESET_B *155:84 0.000186265
8 *1080:RESET_B *172:8 1.0092e-05
9 *1080:RESET_B *207:18 0.000322528
10 *1080:RESET_B *207:43 4.07905e-05
11 *75:8 *1048:A 4.67488e-05
12 *75:8 *91:12 0.000346303
13 *75:8 *117:8 9.99662e-05
*RES
1 *1048:Y *75:8 46.2443 
2 *75:8 *1080:RESET_B 30.8982 
*END

*D_NET *76 0.0169399
*CONN
*I *1081:RESET_B I *D sky130_fd_sc_hd__dfrtp_4
*I *1049:Y O *D sky130_fd_sc_hd__inv_2
*CAP
1 *1081:RESET_B 8.21471e-05
2 *1049:Y 8.48803e-06
3 *76:16 0.00149308
4 *76:14 0.00389905
5 *76:10 0.00249661
6 *1081:RESET_B *183:12 3.41714e-05
7 *76:10 *184:54 2.33476e-05
8 *76:10 *196:16 2.33476e-05
9 *76:14 *131:22 0
10 *76:14 *166:65 0.000142722
11 *76:14 *167:32 0
12 *76:14 *195:63 9.59047e-05
13 *76:14 *213:28 0.00245667
14 *76:16 *93:60 0.00156605
15 *76:16 *93:68 0.000556866
16 *76:16 *105:16 0.00147352
17 *76:16 *116:34 0.000292029
18 *1094:A *76:16 5.94746e-05
19 *11:21 *76:14 0
20 *26:16 *76:16 1.42282e-05
21 *32:14 *76:16 0
22 *43:24 *76:16 0.000406466
23 *54:20 *76:16 0.00119536
24 *70:16 *76:14 0.000620368
*RES
1 *1049:Y *76:10 46.3211 
2 *76:10 *76:14 15.0971 
3 *76:14 *76:16 51.0296 
4 *76:16 *1081:RESET_B 16.5018 
*END

*D_NET *77 0.00837231
*CONN
*I *1082:RESET_B I *D sky130_fd_sc_hd__dfrtp_4
*I *1050:Y O *D sky130_fd_sc_hd__inv_2
*CAP
1 *1082:RESET_B 0.00118472
2 *1050:Y 0.000984154
3 *77:16 0.00216888
4 *1082:RESET_B *1016:A 2.22248e-05
5 *1082:RESET_B *1082:CLK 0.000343573
6 *1082:RESET_B *81:16 5.83146e-05
7 *1082:RESET_B *133:22 5.00912e-05
8 *1082:RESET_B *179:35 9.2057e-05
9 *1082:RESET_B *184:8 8.42361e-05
10 *1082:RESET_B *215:32 0.00016632
11 *1082:RESET_B *215:40 5.61255e-06
12 *77:16 *1014:A1 9.90214e-05
13 *77:16 *1015:A2 2.31687e-05
14 *77:16 *1018:A 9.41704e-05
15 *77:16 *173:60 0.0002349
16 *77:16 *175:14 0.000346539
17 *77:16 *177:148 3.7681e-05
18 *77:16 *215:40 3.78835e-05
19 *77:16 *219:10 0.000137651
20 *77:16 *220:24 0.00126687
21 *77:16 *220:31 0.00046348
22 *20:18 *77:16 0.000470766
*RES
1 *1050:Y *77:16 49.7007 
2 *77:16 *1082:RESET_B 19.3161 
*END

*D_NET *78 0.0178161
*CONN
*I *1083:RESET_B I *D sky130_fd_sc_hd__dfrtp_4
*I *1051:Y O *D sky130_fd_sc_hd__inv_2
*CAP
1 *1083:RESET_B 0.000153694
2 *1051:Y 4.77025e-05
3 *78:28 0.00560272
4 *78:10 0.00549673
5 *1083:RESET_B *85:30 9.41704e-05
6 *1083:RESET_B *199:58 0.000335768
7 *78:10 *153:14 6.77278e-05
8 *78:10 *184:33 6.77278e-05
9 *78:28 *86:39 4.81059e-05
10 *78:28 *86:59 7.87378e-05
11 *78:28 *123:14 4.51815e-05
12 *78:28 *126:51 0.000206034
13 *78:28 *126:72 0.000429371
14 *78:28 *126:97 0.00084673
15 *78:28 *126:116 0.000135143
16 *78:28 *151:24 0.000162626
17 *78:28 *155:51 0.000339663
18 *78:28 *173:30 0.000191228
19 *78:28 *208:34 8.69414e-05
20 *1074:RESET_B *78:28 0.00127735
21 *23:24 *78:28 0.000319529
22 *26:24 *78:28 0.000792307
23 *27:24 *78:28 0.000725327
24 *66:14 *1083:RESET_B 0.000265606
*RES
1 *1051:Y *78:10 47.0254 
2 *78:10 *78:28 43.0097 
3 *78:28 *1083:RESET_B 19.8368 
*END

*D_NET *79 0.00892821
*CONN
*I *1084:RESET_B I *D sky130_fd_sc_hd__dfrtp_4
*I *1052:Y O *D sky130_fd_sc_hd__inv_2
*CAP
1 *1084:RESET_B 0
2 *1052:Y 5.31106e-05
3 *79:28 0.00142056
4 *79:14 0.00205789
5 *79:8 0.000690445
6 *79:8 *176:97 0.000110267
7 *79:8 *201:40 0.000110258
8 *79:14 *1012:A 4.65192e-05
9 *79:14 *112:24 9.41704e-05
10 *79:14 *122:12 0.000304404
11 *79:14 *159:18 0.000898868
12 *79:14 *183:139 0.000178391
13 *79:14 *185:57 0.00022391
14 *79:28 *905:C 0.000254389
15 *79:28 *905:D 1.418e-05
16 *79:28 *112:102 4.28979e-05
17 *79:28 *114:30 0.000250819
18 *79:28 *117:47 8.7741e-05
19 *79:28 *120:14 4.30894e-05
20 *79:28 *141:22 8.33336e-05
21 *79:28 *146:24 0.000257007
22 *79:28 *158:8 2.12347e-06
23 *79:28 *178:59 7.17051e-05
24 *79:28 *190:14 0.000111106
25 *79:28 *202:24 6.16449e-05
26 *79:28 *203:48 0.000679707
27 *79:28 *208:34 0.000477134
28 *79:28 *212:56 0.000157457
29 *1056:RESET_B *79:14 2.06822e-05
30 *64:10 *79:28 0.000124405
31 *67:16 *79:28 0
*RES
1 *1052:Y *79:8 39.5536 
2 *79:8 *79:14 43.9614 
3 *79:14 *79:28 42.59 
4 *79:28 *1084:RESET_B 15 
*END

*D_NET *80 0.0172669
*CONN
*I *225:DIODE I *D sky130_fd_sc_hd__diode_2
*I *1081:D I *D sky130_fd_sc_hd__dfrtp_4
*I *899:X O *D sky130_fd_sc_hd__o21a_1
*CAP
1 *225:DIODE 0
2 *1081:D 0.000217395
3 *899:X 1.03605e-05
4 *80:18 0.000217395
5 *80:16 0.00709514
6 *80:10 0.0071055
7 *1081:D *1081:CLK 7.88828e-05
8 *1081:D *183:12 6.17437e-06
9 *1081:D *183:16 4.07178e-05
10 *80:10 *110:12 2.26497e-05
11 *80:10 *207:43 2.26497e-05
12 *80:16 *908:B 0
13 *80:16 *103:38 2.04088e-05
14 *80:16 *114:20 0.000118744
15 *80:16 *154:52 0
16 *80:16 *161:8 0
17 *80:16 *189:61 0.000121004
18 *80:16 *195:126 0.000208184
19 *80:16 *198:29 4.06419e-05
20 *80:16 *200:18 0
21 *80:16 *203:48 6.28048e-05
22 *80:16 *205:12 0
23 *80:16 *205:26 0
24 *80:16 *213:39 0.000221545
25 *1055:RESET_B *80:16 6.10551e-06
26 *20:216 *80:16 0
27 *35:10 *80:16 0.000326726
28 *43:24 *80:16 0.000942951
29 *47:20 *80:16 0
30 *54:20 *80:16 0
31 *73:16 *80:16 0.000380924
*RES
1 *899:X *80:10 46.3211 
2 *80:10 *80:16 47.6079 
3 *80:16 *80:18 15 
4 *80:18 *1081:D 26.9979 
5 *80:18 *225:DIODE 23 
*END

*D_NET *81 0.00669868
*CONN
*I *1082:D I *D sky130_fd_sc_hd__dfrtp_4
*I *897:Y O *D sky130_fd_sc_hd__nor2_1
*CAP
1 *1082:D 0
2 *897:Y 0
3 *81:16 0.00104739
4 *81:6 0.00104739
5 *81:16 *1016:A 0.000695244
6 *81:16 *1082:CLK 0.000611306
7 *81:16 *84:12 0.00160905
8 *81:16 *179:14 0.000179657
9 *81:16 *179:16 0.000222167
10 *81:16 *179:18 0.000403233
11 *81:16 *179:22 0.000808104
12 *81:16 *214:10 8.30566e-06
13 *1082:RESET_B *81:16 5.83146e-05
14 *40:12 *81:16 8.52094e-06
*RES
1 *897:Y *81:6 38 
2 *81:6 *81:16 46.9207 
3 *81:16 *1082:D 23 
*END

*D_NET *82 0.000739615
*CONN
*I *1083:D I *D sky130_fd_sc_hd__dfrtp_4
*I *895:Y O *D sky130_fd_sc_hd__a211oi_1
*CAP
1 *1083:D 0
2 *895:Y 0.000265486
3 *82:10 0.000265486
4 *82:10 *88:14 7.14034e-05
5 *82:10 *137:63 0.000137238
6 *82:10 *195:22 0
*RES
1 *895:Y *82:10 42.9093 
2 *82:10 *1083:D 38 
*END

*D_NET *83 0.00671767
*CONN
*I *1084:D I *D sky130_fd_sc_hd__dfrtp_4
*I *891:X O *D sky130_fd_sc_hd__xor2_1
*CAP
1 *1084:D 0
2 *891:X 0.000492113
3 *83:38 0.00145455
4 *83:18 0.00185714
5 *83:10 0.000894702
6 *83:10 *103:14 1.83408e-05
7 *83:10 *103:20 1.81646e-05
8 *83:10 *103:209 1.3242e-05
9 *83:10 *186:46 0.000181805
10 *83:10 *188:102 0.000204129
11 *83:10 *197:55 1.03203e-05
12 *83:10 *205:36 6.57815e-06
13 *83:10 *210:72 4.89639e-05
14 *83:18 *192:96 2.05503e-05
15 *83:18 *205:36 0
16 *83:38 *102:45 0.000119224
17 *83:38 *112:75 0.000219383
18 *83:38 *112:96 0.000224317
19 *83:38 *118:32 0.000274425
20 *83:38 *120:6 0.000134468
21 *83:38 *142:50 2.1819e-05
22 *83:38 *154:40 0.000147172
23 *83:38 *186:8 2.0803e-05
24 *1077:D *83:18 0.000157002
25 *20:152 *83:38 9.77922e-06
26 *20:173 *83:38 0.000140939
27 *36:24 *83:18 2.77426e-05
28 *51:18 *83:10 0
*RES
1 *891:X *83:10 45.7264 
2 *83:10 *83:18 35.3857 
3 *83:18 *83:38 40.81 
4 *83:38 *1084:D 23 
*END

*D_NET *84 0.0275375
*CONN
*I *894:B I *D sky130_fd_sc_hd__nor2_1
*I *890:B I *D sky130_fd_sc_hd__and2_1
*I *897:A I *D sky130_fd_sc_hd__nor2_1
*I *889:X O *D sky130_fd_sc_hd__and3_1
*CAP
1 *894:B 1.49804e-05
2 *890:B 4.47557e-05
3 *897:A 3.14615e-05
4 *889:X 0.000176292
5 *84:60 0.000837361
6 *84:56 0.00221362
7 *84:39 0.0029692
8 *84:27 0.00210115
9 *84:12 0.00173836
10 *84:8 0.00131524
11 *890:B *103:38 1.96015e-05
12 *890:B *185:43 1.14452e-05
13 *890:B *189:61 2.24608e-05
14 *894:B *931:A2 5.50106e-05
15 *894:B *931:B1 5.50106e-05
16 *897:A *89:20 1.9054e-05
17 *84:8 *995:B 0.000322582
18 *84:12 *1074:CLK 0
19 *84:12 *162:54 0.00100101
20 *84:12 *214:10 7.4369e-05
21 *84:27 *89:20 0.000138859
22 *84:27 *204:16 0.000804005
23 *84:39 *95:61 0.000602326
24 *84:39 *103:38 0
25 *84:39 *132:14 0.000175903
26 *84:39 *134:18 5.61255e-06
27 *84:39 *135:8 0.000718618
28 *84:39 *144:6 0.00153075
29 *84:39 *176:114 0.000227221
30 *84:39 *176:118 0.000522044
31 *84:39 *178:8 5.50049e-05
32 *84:39 *189:61 0.000129667
33 *84:39 *193:36 6.70361e-05
34 *84:56 *95:67 0.000512377
35 *84:56 *212:62 0.000589914
36 *84:56 *214:70 0.000178517
37 *84:56 *214:130 0.00064041
38 *84:60 *110:12 4.85126e-05
39 *84:60 *117:39 0.000555791
40 *84:60 *123:14 4.1227e-05
41 *84:60 *155:84 0.000404968
42 *84:60 *194:16 0.0019263
43 *84:60 *195:158 2.05503e-05
44 *84:60 *199:60 0.000213353
45 *84:60 *199:70 0.000772402
46 *84:60 *207:43 8.44738e-05
47 *1053:RESET_B *84:27 0.000803103
48 *1056:D *84:27 2.43944e-05
49 *1059:RESET_B *890:B 1.32728e-05
50 *20:32 *84:8 2.193e-05
51 *28:18 *84:39 0
52 *40:12 *84:12 0.000447141
53 *47:20 *84:60 0.000116284
54 *67:10 *84:56 0.000513538
55 *81:16 *84:12 0.00160905
*RES
1 *889:X *84:8 41.9564 
2 *84:8 *84:12 43.3164 
3 *84:12 *897:A 23.8493 
4 *84:12 *84:27 43.9407 
5 *84:27 *84:39 48.93 
6 *84:39 *890:B 38.8493 
7 *84:39 *84:56 37.7029 
8 *84:56 *84:60 45.4293 
9 *84:60 *894:B 38.6214 
*END

*D_NET *85 0.0135691
*CONN
*I *895:C1 I *D sky130_fd_sc_hd__a211oi_1
*I *891:B I *D sky130_fd_sc_hd__xor2_1
*I *890:X O *D sky130_fd_sc_hd__and2_1
*CAP
1 *895:C1 0.000156837
2 *891:B 0
3 *890:X 0.000209678
4 *85:42 0.000636333
5 *85:30 0.00150611
6 *85:16 0.00256985
7 *85:8 0.00175292
8 *895:C1 *895:A1 2.47321e-05
9 *895:C1 *895:A2 0.000265362
10 *895:C1 *88:14 3.22051e-05
11 *895:C1 *176:153 0.000202282
12 *85:16 *102:45 3.5202e-05
13 *85:16 *112:117 0
14 *85:16 *114:30 0.000168614
15 *85:16 *141:22 0.00053644
16 *85:16 *158:18 0.00139474
17 *85:16 *182:60 0
18 *85:16 *189:33 0
19 *85:16 *189:43 0
20 *85:16 *192:115 4.30894e-05
21 *85:16 *195:22 0
22 *85:16 *203:90 0.000182822
23 *85:16 *214:113 0.00112544
24 *85:30 *895:A2 9.94357e-05
25 *85:30 *86:6 5.56279e-05
26 *85:30 *86:39 0.000265466
27 *85:30 *114:30 8.04817e-05
28 *85:30 *126:128 5.02574e-05
29 *85:30 *176:153 5.40655e-05
30 *85:30 *199:41 2.93845e-05
31 *85:30 *199:58 0.000108826
32 *85:30 *208:34 0.000117217
33 *85:30 *208:55 2.11066e-05
34 *85:42 *103:209 0.000128282
35 *85:42 *118:14 4.49877e-05
36 *85:42 *126:128 0.000904565
37 *85:42 *126:136 7.20506e-05
38 *85:42 *183:16 0.00029744
39 *85:42 *210:72 3.47648e-05
40 *1083:RESET_B *85:30 9.41704e-05
41 *67:10 *85:8 0.000268339
*RES
1 *890:X *85:8 41.0036 
2 *85:8 *85:16 48.6607 
3 *85:16 *85:30 43.5575 
4 *85:30 *85:42 44.9454 
5 *85:42 *891:B 23 
6 *85:16 *895:C1 28.5514 
*END

*D_NET *86 0.039937
*CONN
*I *1011:A I *D sky130_fd_sc_hd__nor2_1
*I *1015:B1 I *D sky130_fd_sc_hd__a21oi_1
*I *1016:A I *D sky130_fd_sc_hd__inv_2
*I *893:B I *D sky130_fd_sc_hd__and2_1
*I *892:Y O *D sky130_fd_sc_hd__nor3_2
*CAP
1 *1011:A 0
2 *1015:B1 1.54684e-05
3 *1016:A 0.00183132
4 *893:B 0
5 *892:Y 1.56031e-05
6 *86:93 0.00121129
7 *86:59 0.00367043
8 *86:51 0.00704806
9 *86:43 0.0066723
10 *86:39 0.00131107
11 *86:20 0.000699786
12 *86:6 0.00175893
13 *1015:B1 *141:12 1.05658e-05
14 *1015:B1 *177:148 1.05441e-05
15 *1015:B1 *183:87 5.08422e-06
16 *1016:A *1082:CLK 2.50118e-05
17 *1016:A *133:22 0.000135037
18 *1016:A *179:35 8.75254e-05
19 *1016:A *184:8 0.000428553
20 *86:6 *126:128 5.56279e-05
21 *86:20 *977:A 2.46318e-06
22 *86:20 *87:12 6.7705e-05
23 *86:20 *87:32 1.04026e-05
24 *86:20 *126:136 9.4798e-06
25 *86:20 *189:8 3.87221e-06
26 *86:20 *189:18 0.000748779
27 *86:20 *189:33 0.000133821
28 *86:20 *200:35 0.000965043
29 *86:20 *200:64 2.55744e-05
30 *86:39 *892:A 0.000176428
31 *86:39 *101:18 0.000932347
32 *86:39 *123:14 0.00037042
33 *86:39 *126:128 0.000167358
34 *86:39 *155:61 0.000142619
35 *86:39 *182:60 0.000115228
36 *86:39 *186:40 0.000167241
37 *86:39 *189:43 3.22939e-05
38 *86:39 *199:41 0.000184687
39 *86:43 *102:45 0.000383908
40 *86:51 *167:18 2.79999e-05
41 *86:51 *173:72 2.85388e-05
42 *86:51 *205:55 0.00158006
43 *86:59 *129:24 0.00109577
44 *86:59 *153:14 0
45 *86:59 *160:18 0.000104388
46 *86:59 *173:30 0.000443538
47 *86:59 *173:72 6.5889e-05
48 *86:59 *188:22 9.82639e-05
49 *86:59 *204:16 0.000224844
50 *86:59 *215:32 2.26406e-05
51 *86:93 *101:18 0.000287019
52 *86:93 *102:45 0.00138889
53 *86:93 *116:34 0.000365996
54 *86:93 *173:90 0.000100069
55 *86:93 *187:47 7.38547e-05
56 *86:93 *195:12 7.16228e-05
57 *86:93 *210:22 4.45242e-05
58 *86:93 *217:8 0.000181801
59 *1060:RESET_B *86:93 0.00010091
60 *1074:RESET_B *86:51 0.000235608
61 *1074:RESET_B *86:59 0.00208014
62 *1082:RESET_B *1016:A 2.22248e-05
63 *20:173 *86:20 6.56284e-05
64 *23:24 *86:43 0.000177628
65 *23:24 *86:51 0
66 *23:24 *86:93 0.00027408
67 *36:24 *86:51 0
68 *78:28 *86:39 4.81059e-05
69 *78:28 *86:59 7.87378e-05
70 *81:16 *1016:A 0.000695244
71 *85:30 *86:6 5.56279e-05
72 *85:30 *86:39 0.000265466
*RES
1 *892:Y *86:6 23.6214 
2 *86:6 *86:20 49.6436 
3 *86:20 *893:B 23 
4 *86:6 *86:39 44.076 
5 *86:39 *86:43 8.78587 
6 *86:43 *86:51 26.3581 
7 *86:51 *86:59 29.8431 
8 *86:59 *1016:A 48.1679 
9 *86:51 *1015:B1 46.3211 
10 *86:43 *86:93 36.149 
11 *86:93 *1011:A 23 
*END

*D_NET *87 0.023324
*CONN
*I *895:A2 I *D sky130_fd_sc_hd__a211oi_1
*I *1017:B1 I *D sky130_fd_sc_hd__a21oi_1
*I *898:B1 I *D sky130_fd_sc_hd__a21oi_1
*I *893:X O *D sky130_fd_sc_hd__and2_1
*CAP
1 *895:A2 0.000688435
2 *1017:B1 0
3 *898:B1 9.2579e-05
4 *893:X 0.000188945
5 *87:69 0.000722782
6 *87:65 0.00180997
7 *87:61 0.00251363
8 *87:44 0.0024563
9 *87:32 0.00203602
10 *87:12 0.000599254
11 *895:A2 *895:A1 0.000318666
12 *895:A2 *901:B1 9.73664e-05
13 *895:A2 *994:A2 8.43466e-05
14 *895:A2 *1038:A 9.95589e-06
15 *895:A2 *92:8 0.000400499
16 *895:A2 *114:30 0.000114907
17 *895:A2 *176:153 1.76557e-05
18 *895:A2 *208:55 0.000507582
19 *898:B1 *898:A1 5.3304e-05
20 *898:B1 *960:B 1.46205e-05
21 *898:B1 *90:10 1.24376e-05
22 *898:B1 *132:14 0.000132861
23 *898:B1 *162:14 0.000135092
24 *87:12 *977:A 7.54015e-06
25 *87:12 *200:35 3.55272e-05
26 *87:32 *977:A 0.000173037
27 *87:32 *994:A2 0.000100061
28 *87:32 *994:B1 2.31765e-05
29 *87:32 *92:8 0.000142173
30 *87:32 *161:20 2.67247e-05
31 *87:32 *183:24 6.3704e-06
32 *87:32 *189:18 1.82221e-05
33 *87:32 *195:28 0.000105186
34 *87:32 *201:24 0.000102247
35 *87:44 *101:18 0.000112158
36 *87:44 *124:10 2.26497e-05
37 *87:44 *132:14 0.0007953
38 *87:44 *154:34 2.26497e-05
39 *87:44 *159:24 0.000169854
40 *87:44 *161:20 6.80332e-05
41 *87:44 *162:14 0.000784523
42 *87:44 *183:28 8.652e-05
43 *87:44 *188:121 2.05503e-05
44 *87:44 *210:72 7.77775e-05
45 *87:61 *93:40 0.00077759
46 *87:61 *93:48 0.0008507
47 *87:65 *93:48 3.61714e-05
48 *87:65 *133:75 7.00754e-06
49 *87:65 *136:12 0.000535269
50 *87:65 *146:66 0.000234019
51 *87:65 *175:50 0.000622125
52 *87:65 *176:71 1.52259e-05
53 *87:65 *177:20 0.000512799
54 *87:65 *177:35 6.79467e-05
55 *87:65 *195:126 0.000397964
56 *87:69 *133:75 2.11157e-05
57 *87:69 *173:30 0.000199799
58 *87:69 *175:28 1.13812e-05
59 *87:69 *175:50 0.00143599
60 *87:69 *184:10 5.36496e-06
61 *87:69 *212:14 0.000122928
62 *87:69 *212:25 0.000183676
63 *895:C1 *895:A2 0.000265362
64 *1062:RESET_B *87:69 0.00019198
65 *20:66 *87:65 0.000590733
66 *20:173 *87:32 0.000153853
67 *85:30 *895:A2 9.94357e-05
68 *86:20 *87:12 6.7705e-05
69 *86:20 *87:32 1.04026e-05
*RES
1 *893:X *87:12 46.6347 
2 *87:12 *87:32 44.4908 
3 *87:32 *87:44 49.3825 
4 *87:44 *898:B1 40.5271 
5 *87:44 *87:61 49.6786 
6 *87:61 *87:65 30.9989 
7 *87:65 *87:69 35.3932 
8 *87:69 *1017:B1 23 
9 *87:32 *895:A2 42.6993 
*END

*D_NET *88 0.00451745
*CONN
*I *895:B1 I *D sky130_fd_sc_hd__a211oi_1
*I *894:Y O *D sky130_fd_sc_hd__nor2_1
*CAP
1 *895:B1 0
2 *894:Y 0.000200799
3 *88:14 0.00144937
4 *88:10 0.00165017
5 *88:10 *931:A2 9.84794e-05
6 *88:10 *197:87 0
7 *88:10 *201:82 2.7923e-05
8 *88:10 *207:43 5.586e-05
9 *88:14 *966:C 2.13733e-05
10 *88:14 *1063:CLK 0.000198206
11 *88:14 *142:8 0.000137651
12 *88:14 *182:85 0.000488616
13 *895:C1 *88:14 3.22051e-05
14 *1063:RESET_B *88:14 9.88574e-06
15 *47:20 *88:10 7.54991e-05
16 *82:10 *88:14 7.14034e-05
*RES
1 *894:Y *88:10 42.06 
2 *88:10 *88:14 36.1079 
3 *88:14 *895:B1 23 
*END

*D_NET *89 0.00797719
*CONN
*I *897:B I *D sky130_fd_sc_hd__nor2_1
*I *896:Y O *D sky130_fd_sc_hd__a21oi_1
*CAP
1 *897:B 0
2 *896:Y 0.00111724
3 *89:20 0.000776573
4 *89:10 0.00189381
5 *89:10 *106:8 0.00136612
6 *89:10 *179:64 0.000107611
7 *89:10 *214:43 0.000987721
8 *89:20 *1091:A 0.000137525
9 *89:20 *162:38 0.000465975
10 *897:A *89:20 1.9054e-05
11 *1056:D *89:20 0.000481197
12 *1057:RESET_B *89:20 0.000463753
13 *31:12 *89:10 2.17486e-05
14 *84:27 *89:20 0.000138859
*RES
1 *896:Y *89:10 45.2264 
2 *89:10 *89:20 48.56 
3 *89:20 *897:B 23 
*END

*D_NET *90 0.0105678
*CONN
*I *899:B1 I *D sky130_fd_sc_hd__o21a_1
*I *898:Y O *D sky130_fd_sc_hd__a21oi_1
*CAP
1 *899:B1 0
2 *898:Y 0.000197545
3 *90:20 0.000773377
4 *90:14 0.00269805
5 *90:10 0.00212221
6 *90:10 *898:A1 9.29518e-05
7 *90:10 *960:B 0.000202874
8 *90:10 *960:C 6.42626e-05
9 *90:10 *214:82 1.3523e-05
10 *90:14 *178:59 5.18413e-05
11 *90:14 *203:90 0.000739625
12 *90:14 *208:18 0.000175654
13 *90:14 *214:82 9.77922e-06
14 *90:20 *971:A 0.000348905
15 *90:20 *95:61 5.01045e-05
16 *90:20 *176:118 5.56279e-05
17 *90:20 *176:135 0.000746323
18 *90:20 *194:10 0.000281579
19 *90:20 *209:66 0.000748555
20 *90:20 *214:130 0.000221084
21 *898:B1 *90:10 1.24376e-05
22 *960:A *90:14 4.05745e-05
23 *1067:D *90:14 0.000182738
24 *1070:RESET_B *90:20 0.000304686
25 *20:152 *90:10 1.00493e-05
26 *20:152 *90:14 0.000423433
*RES
1 *898:Y *90:10 28.3029 
2 *90:10 *90:14 39.9193 
3 *90:14 *90:20 36.46 
4 *90:20 *899:B1 23 
*END

*D_NET *91 0.0257563
*CONN
*I *912:A1 I *D sky130_fd_sc_hd__a21bo_4
*I *1005:B I *D sky130_fd_sc_hd__or3_1
*I *1008:B2 I *D sky130_fd_sc_hd__a2bb2o_1
*I *900:Y O *D sky130_fd_sc_hd__inv_2
*CAP
1 *912:A1 0
2 *1005:B 0.000387063
3 *1008:B2 0
4 *900:Y 0
5 *91:54 0.00140546
6 *91:37 0.00215609
7 *91:27 0.00804185
8 *91:12 0.000448121
9 *91:6 0.00531548
10 *1005:B *166:69 7.87147e-05
11 *1005:B *167:32 7.0359e-05
12 *91:12 *920:B1 5.56356e-05
13 *91:12 *1008:A1_N 2.46906e-05
14 *91:12 *1008:A2_N 0.000428661
15 *91:12 *117:8 4.79544e-05
16 *91:12 *166:8 0.000188682
17 *91:12 *187:55 1.05441e-05
18 *91:12 *204:62 0.000407239
19 *91:27 *105:16 0.000175181
20 *91:27 *126:82 4.3073e-05
21 *91:27 *135:16 0.000210037
22 *91:27 *167:43 0
23 *91:27 *177:80 8.98103e-05
24 *91:27 *178:33 0.000362153
25 *91:27 *187:55 2.26406e-05
26 *91:27 *188:22 0.000137616
27 *91:27 *198:51 5.08422e-06
28 *91:27 *204:16 0.000307792
29 *91:27 *205:26 0
30 *91:37 *213:39 0.000907521
31 *91:54 *140:26 4.82567e-05
32 *91:54 *148:41 0.000990217
33 *91:54 *180:45 0
34 *91:54 *188:22 0.000540399
35 *91:54 *191:94 0.000707917
36 *91:54 *193:28 0.000255884
37 *91:54 *204:16 0.000484505
38 *91:54 *204:26 0.00018008
39 *11:21 *91:37 3.92967e-05
40 *22:14 *91:37 0.000150606
41 *43:24 *91:37 0
42 *51:18 *91:54 1.47372e-05
43 *61:22 *91:27 0
44 *73:16 *91:37 0.00067065
45 *75:8 *91:12 0.000346303
*RES
1 *900:Y *91:6 38 
2 *91:6 *91:12 27.7186 
3 *91:12 *1008:B2 23 
4 *91:6 *91:27 29.5062 
5 *91:27 *91:37 46.0118 
6 *91:37 *1005:B 27.9093 
7 *91:27 *91:54 49.8311 
8 *91:54 *912:A1 23 
*END

*D_NET *92 0.00961077
*CONN
*I *911:A1 I *D sky130_fd_sc_hd__o211ai_4
*I *901:X O *D sky130_fd_sc_hd__a21o_1
*CAP
1 *911:A1 0.000575365
2 *901:X 0.000285849
3 *92:14 0.00141696
4 *92:8 0.00112744
5 *911:A1 *911:B1 0.000488737
6 *911:A1 *102:12 2.18409e-05
7 *92:8 *113:6 1.41129e-05
8 *92:8 *161:20 1.21972e-05
9 *92:8 *195:28 0.000109935
10 *92:8 *208:55 0.00114433
11 *92:14 *911:B1 0.00016091
12 *92:14 *977:A 4.9662e-05
13 *92:14 *101:18 2.33476e-05
14 *92:14 *113:6 0.000100061
15 *92:14 *150:8 0.00100454
16 *92:14 *176:71 0.000150282
17 *92:14 *200:16 0.000238862
18 *92:14 *200:35 2.05503e-05
19 *895:A2 *92:8 0.000400499
20 *1075:RESET_B *92:14 8.05535e-05
21 *20:187 *92:8 0.000532067
22 *20:195 *92:14 0.00130036
23 *34:10 *92:14 2.56967e-05
24 *35:10 *92:14 0.000184442
25 *87:32 *92:8 0.000142173
*RES
1 *901:X *92:8 36.5057 
2 *92:8 *92:14 41.9286 
3 *92:14 *911:A1 46.1407 
*END

*D_NET *93 0.0453926
*CONN
*I *931:A2 I *D sky130_fd_sc_hd__a21oi_1
*I *928:B I *D sky130_fd_sc_hd__or2_1
*I *932:C I *D sky130_fd_sc_hd__and3_1
*I *904:A I *D sky130_fd_sc_hd__and2_1
*I *924:A_N I *D sky130_fd_sc_hd__and3b_1
*I *927:B I *D sky130_fd_sc_hd__nand2_1
*I *944:A2 I *D sky130_fd_sc_hd__a31o_1
*I *945:C I *D sky130_fd_sc_hd__and4_2
*I *902:X O *D sky130_fd_sc_hd__and4_4
*CAP
1 *931:A2 0.000711599
2 *928:B 1.56031e-05
3 *932:C 0.000436384
4 *904:A 0
5 *924:A_N 0
6 *927:B 0
7 *944:A2 0
8 *945:C 0
9 *902:X 5.04535e-05
10 *93:126 0.00145881
11 *93:120 0.00183004
12 *93:110 0.000951132
13 *93:108 0.00109724
14 *93:94 0.000641182
15 *93:68 0.000428226
16 *93:60 0.00152041
17 *93:50 0.0013889
18 *93:48 0.00112066
19 *93:40 0.00195397
20 *93:38 0.00100023
21 *93:30 0.00110687
22 *93:20 0.00311663
23 *93:10 0.00229463
24 *93:8 5.04535e-05
25 *928:B *1093:A 5.56279e-05
26 *928:B *208:110 5.56279e-05
27 *931:A2 *931:B1 0.000522783
28 *931:A2 *116:14 9.03364e-06
29 *932:C *896:A1 5.56279e-05
30 *932:C *917:C 8.26212e-05
31 *932:C *932:A 5.3304e-05
32 *932:C *96:16 0.000203181
33 *932:C *105:16 0.000123988
34 *932:C *183:81 0
35 *932:C *214:62 0.000197437
36 *93:8 *182:91 0.000140343
37 *93:8 *196:133 0.000140343
38 *93:20 *931:B1 9.91895e-05
39 *93:20 *112:130 0.000685338
40 *93:20 *115:24 2.55199e-05
41 *93:20 *117:47 0
42 *93:20 *145:10 0.00124572
43 *93:20 *196:133 5.40396e-05
44 *93:20 *202:26 0.000275584
45 *93:20 *202:51 5.51479e-05
46 *93:30 *924:B 5.56356e-05
47 *93:30 *103:38 9.4798e-06
48 *93:30 *165:29 0.00021023
49 *93:38 *122:20 0.000329488
50 *93:38 *142:50 1.74874e-06
51 *93:38 *144:18 0
52 *93:38 *146:28 0.000545491
53 *93:38 *146:38 0.000218476
54 *93:38 *165:29 0.000847401
55 *93:38 *183:57 0.000304129
56 *93:40 *103:20 0.000230734
57 *93:40 *120:14 0.000179473
58 *93:40 *149:24 0.000476749
59 *93:40 *183:47 0.000476747
60 *93:48 *1004:A1 1.27321e-05
61 *93:48 *128:12 9.28078e-06
62 *93:48 *177:20 0.000416588
63 *93:48 *187:20 4.98644e-05
64 *93:48 *203:75 0.000170196
65 *93:50 *143:6 4.6379e-05
66 *93:50 *146:66 8.73233e-05
67 *93:50 *187:24 0.000724527
68 *93:50 *212:80 0.000184815
69 *93:60 *94:37 2.64616e-05
70 *93:60 *125:8 1.59094e-05
71 *93:60 *187:24 0.000437346
72 *93:60 *198:16 3.22051e-05
73 *93:94 *977:A 4.19867e-05
74 *93:94 *117:76 4.96811e-06
75 *93:94 *148:41 0.000973668
76 *93:94 *175:115 0.000135557
77 *93:94 *210:72 0
78 *93:108 *96:16 0.000528395
79 *93:108 *96:37 0.000881236
80 *93:108 *114:20 0.00085626
81 *93:108 *137:48 7.57281e-06
82 *93:108 *189:43 0
83 *93:108 *206:12 0
84 *93:110 *96:16 0.00019691
85 *93:110 *103:52 0
86 *93:110 *208:93 0
87 *93:120 *105:16 4.67227e-05
88 *93:120 *183:81 0
89 *93:120 *208:93 1.9972e-05
90 *93:126 *103:52 0.000170483
91 *93:126 *109:6 0.00023585
92 *93:126 *119:24 2.05503e-05
93 *93:126 *126:61 1.91026e-05
94 *93:126 *133:30 0.000283002
95 *93:126 *138:14 0
96 *93:126 *173:72 4.11349e-05
97 *93:126 *177:12 0.000131527
98 *93:126 *177:148 2.64114e-05
99 *93:126 *183:81 5.21872e-05
100 *93:126 *183:87 0.00118307
101 *93:126 *189:71 0
102 *93:126 *193:16 0
103 *93:126 *195:104 3.22051e-05
104 *93:126 *196:41 4.62237e-05
105 *93:126 *203:34 0
106 *93:126 *204:43 1.6613e-05
107 *894:B *931:A2 5.50106e-05
108 *1058:RESET_B *93:120 4.90004e-05
109 *1059:RESET_B *93:108 0
110 *26:16 *93:68 0.000809712
111 *34:10 *93:94 4.80826e-05
112 *43:24 *93:60 0.000670864
113 *47:20 *93:20 7.02942e-05
114 *50:26 *93:20 0.000613063
115 *50:26 *93:30 0.000535953
116 *51:18 *93:94 0.00100742
117 *54:20 *93:108 0
118 *62:22 *93:20 0.000232308
119 *62:22 *93:30 0.000110156
120 *76:16 *93:60 0.00156605
121 *76:16 *93:68 0.000556866
122 *87:61 *93:40 0.00077759
123 *87:61 *93:48 0.0008507
124 *87:65 *93:48 3.61714e-05
125 *88:10 *931:A2 9.84794e-05
*RES
1 *902:X *93:8 39.9057 
2 *93:8 *93:10 15 
3 *93:10 *93:20 47.2086 
4 *93:20 *93:30 26.9346 
5 *93:30 *93:38 44.3964 
6 *93:38 *93:40 15.3907 
7 *93:40 *93:48 47.5657 
8 *93:48 *93:50 8.24429 
9 *93:50 *93:60 45.4086 
10 *93:60 *93:68 41.8071 
11 *93:68 *945:C 38 
12 *93:50 *944:A2 23 
13 *93:40 *93:94 48.9329 
14 *93:94 *927:B 23 
15 *93:30 *924:A_N 23 
16 *93:20 *93:108 28.0411 
17 *93:108 *93:110 2.78607 
18 *93:110 *93:120 35.4789 
19 *93:120 *93:126 42.3221 
20 *93:126 *904:A 23 
21 *93:110 *932:C 45.9439 
22 *93:108 *928:B 38.6214 
23 *93:10 *931:A2 36.5057 
*END

*D_NET *94 0.0202852
*CONN
*I *904:B I *D sky130_fd_sc_hd__and2_1
*I *944:A3 I *D sky130_fd_sc_hd__a31o_1
*I *945:D I *D sky130_fd_sc_hd__and4_2
*I *903:X O *D sky130_fd_sc_hd__and4_1
*CAP
1 *904:B 3.9916e-05
2 *944:A3 0
3 *945:D 0.000560982
4 *903:X 0
5 *94:50 0.00116778
6 *94:37 0.000851166
7 *94:20 0.000756675
8 *94:10 0.00117735
9 *94:8 0.00271834
10 *94:4 0.00371572
11 *904:B *109:6 0.000132671
12 *904:B *195:104 0.000234542
13 *945:D *945:A 0.000487401
14 *945:D *212:14 6.67709e-05
15 *94:8 *903:C 0.000139067
16 *94:8 *1034:A 0.000297143
17 *94:8 *146:116 0.0018701
18 *94:8 *219:16 0.00016051
19 *94:10 *121:14 0
20 *94:10 *155:22 0
21 *94:10 *156:10 2.76611e-06
22 *94:10 *166:65 0
23 *94:20 *166:65 8.62876e-05
24 *94:37 *908:B 0.000247687
25 *94:37 *194:39 0.000428402
26 *94:37 *200:18 3.11878e-05
27 *94:37 *212:80 2.02517e-05
28 *94:37 *213:39 0.000520447
29 *94:50 *903:C 0.000558717
30 *94:50 *95:21 0
31 *94:50 *126:47 9.41618e-05
32 *94:50 *173:10 0
33 *94:50 *196:41 0
34 *94:50 *215:40 5.64582e-05
35 *94:50 *215:55 0.000520547
36 *94:50 *220:10 0.000483922
37 *22:14 *94:10 0.000209385
38 *22:14 *94:37 0.00104426
39 *62:14 *94:10 8.4047e-05
40 *62:14 *94:20 3.83778e-05
41 *62:14 *94:37 0.00138385
42 *64:10 *94:50 7.18672e-05
43 *93:60 *94:37 2.64616e-05
*RES
1 *903:X *94:4 23 
2 *94:4 *94:8 49.9243 
3 *94:8 *94:10 2.96214 
4 *94:10 *94:20 47.7757 
5 *94:20 *945:D 31.4929 
6 *94:10 *94:37 44.7871 
7 *94:37 *944:A3 23 
8 *94:4 *94:50 49.5129 
9 *94:50 *904:B 25.5271 
*END

*D_NET *95 0.0259435
*CONN
*I *941:B I *D sky130_fd_sc_hd__nand2_1
*I *909:A2 I *D sky130_fd_sc_hd__o31a_1
*I *940:B I *D sky130_fd_sc_hd__or2_1
*I *939:C1 I *D sky130_fd_sc_hd__a211oi_1
*I *904:X O *D sky130_fd_sc_hd__and2_1
*CAP
1 *941:B 0
2 *909:A2 0.00142851
3 *940:B 0
4 *939:C1 0
5 *904:X 0.000286016
6 *95:67 0.000509072
7 *95:61 0.00240854
8 *95:55 0.00201017
9 *95:32 0.00176895
10 *95:21 0.00153181
11 *95:14 0.000378289
12 *95:8 0.00196637
13 *909:A2 *905:B 1.18939e-05
14 *909:A2 *97:14 0.000565103
15 *909:A2 *176:65 2.02872e-05
16 *909:A2 *176:82 0.000147768
17 *909:A2 *176:89 0.000341693
18 *909:A2 *176:114 0.00026025
19 *909:A2 *193:28 0.000332873
20 *95:8 *195:104 0.000405649
21 *95:14 *103:130 8.12305e-05
22 *95:14 *109:6 0.0011002
23 *95:14 *173:10 8.12305e-05
24 *95:14 *188:61 0.000104182
25 *95:14 *195:104 0.000489661
26 *95:21 *103:66 0.000708695
27 *95:21 *135:16 0.000350679
28 *95:21 *173:10 0.000200431
29 *95:21 *197:20 0.000350407
30 *95:21 *197:33 6.81753e-05
31 *95:32 *135:16 0.000421097
32 *95:32 *178:14 1.0794e-05
33 *95:55 *905:B 0.000190561
34 *95:55 *135:16 3.95573e-06
35 *95:55 *178:14 0.000156487
36 *95:55 *193:22 5.67058e-05
37 *95:55 *193:28 5.50106e-05
38 *95:61 *130:14 0.000108681
39 *95:61 *176:118 0.000453777
40 *95:61 *194:10 0.000472128
41 *95:61 *214:130 0.000108681
42 *95:67 *123:8 0.00074064
43 *95:67 *212:62 0.00134998
44 *20:18 *95:21 0.000427652
45 *20:50 *95:21 0.000952949
46 *20:82 *95:21 0.000222981
47 *20:119 *95:21 0.00012671
48 *20:119 *95:32 0.000370833
49 *64:6 *909:A2 0.000612076
50 *67:10 *909:A2 1.32314e-05
51 *67:10 *95:55 1.56762e-05
52 *84:39 *95:61 0.000602326
53 *84:56 *95:67 0.000512377
54 *90:20 *95:61 5.01045e-05
55 *94:50 *95:21 0
*RES
1 *904:X *95:8 42.4329 
2 *95:8 *95:14 28.2571 
3 *95:14 *939:C1 23 
4 *95:8 *95:21 29.725 
5 *95:21 *940:B 38 
6 *95:21 *95:32 21.1314 
7 *95:32 *909:A2 49.4314 
8 *95:32 *95:55 33.3557 
9 *95:55 *95:61 40.52 
10 *95:61 *95:67 31.7164 
11 *95:67 *941:B 23 
*END

*D_NET *96 0.0126319
*CONN
*I *970:C I *D sky130_fd_sc_hd__and4_1
*I *906:D I *D sky130_fd_sc_hd__or4_1
*I *905:X O *D sky130_fd_sc_hd__and4_1
*CAP
1 *970:C 0
2 *906:D 0
3 *905:X 0.000637857
4 *96:37 0.00116606
5 *96:16 0.00086555
6 *96:12 0.00266946
7 *96:12 *185:27 8.61159e-05
8 *96:12 *185:43 2.64616e-05
9 *96:12 *192:51 0.000137096
10 *96:12 *193:22 0.000135037
11 *96:12 *203:34 0.000137361
12 *96:12 *212:62 0.000194066
13 *96:16 *906:C 2.26406e-05
14 *96:16 *133:49 1.39538e-05
15 *96:16 *183:87 0
16 *96:16 *189:61 1.07272e-05
17 *96:16 *189:63 0.000813833
18 *96:16 *192:51 0.000484962
19 *96:16 *209:44 0
20 *96:37 *970:D 0.000102588
21 *96:37 *137:48 2.64489e-05
22 *96:37 *154:10 0.00018137
23 *96:37 *167:8 5.3304e-05
24 *96:37 *185:23 0.00197217
25 *96:37 *189:61 1.78655e-05
26 *96:37 *192:51 1.01436e-05
27 *96:37 *203:98 0.00105714
28 *932:C *96:16 0.000203181
29 *93:108 *96:16 0.000528395
30 *93:108 *96:37 0.000881236
31 *93:110 *96:16 0.00019691
*RES
1 *905:X *96:12 48.3157 
2 *96:12 *96:16 33.8086 
3 *96:16 *906:D 23 
4 *96:12 *96:37 47.77 
5 *96:37 *970:C 23 
*END

*D_NET *97 0.0108879
*CONN
*I *909:A3 I *D sky130_fd_sc_hd__o31a_1
*I *906:X O *D sky130_fd_sc_hd__or4_1
*CAP
1 *909:A3 0
2 *906:X 0
3 *97:14 0.00133834
4 *97:8 0.00329984
5 *97:4 0.00196149
6 *97:8 *906:C 0.000100061
7 *97:8 *959:A 3.65917e-05
8 *97:8 *980:B 0.000180224
9 *97:8 *152:14 9.41704e-05
10 *97:8 *162:48 2.02872e-05
11 *97:8 *164:10 0.000186606
12 *97:8 *176:6 0.000139977
13 *97:8 *177:12 0.000176977
14 *97:8 *177:16 4.49353e-05
15 *97:8 *190:20 0.000327999
16 *97:8 *201:40 0.000125213
17 *97:8 *201:50 0.000139352
18 *97:14 *148:10 0.000176544
19 *97:14 *148:29 0.00127225
20 *97:14 *176:59 0
21 *97:14 *176:65 0.000342939
22 *97:14 *176:82 0.000231039
23 *97:14 *215:22 0
24 *909:A2 *97:14 0.000565103
25 *46:26 *97:8 0.00012797
*RES
1 *906:X *97:4 23 
2 *97:4 *97:8 48.0186 
3 *97:8 *97:14 42.26 
4 *97:14 *909:A3 23 
*END

*D_NET *98 0.00506825
*CONN
*I *908:C I *D sky130_fd_sc_hd__and4b_1
*I *907:X O *D sky130_fd_sc_hd__and4b_1
*CAP
1 *908:C 0
2 *907:X 0.0006725
3 *98:12 0.000594518
4 *98:6 0.00126702
5 *98:6 *1025:A 8.89091e-05
6 *98:6 *154:44 0.000555704
7 *98:6 *154:52 0.000393287
8 *98:6 *165:8 0.000567234
9 *98:12 *100:10 0.000878198
10 *98:12 *161:8 0
11 *1077:RESET_B *98:6 2.79662e-05
12 *20:216 *98:12 2.29192e-05
13 *54:20 *98:12 0
*RES
1 *907:X *98:6 38.8671 
2 *98:6 *98:12 44.2307 
3 *98:12 *908:C 23 
*END

*D_NET *99 0.00625335
*CONN
*I *909:B1 I *D sky130_fd_sc_hd__o31a_1
*I *908:X O *D sky130_fd_sc_hd__and4b_1
*CAP
1 *909:B1 2.21816e-05
2 *908:X 0.000472619
3 *99:18 0.00111531
4 *99:10 0.00156575
5 *909:B1 *176:65 5.3304e-05
6 *909:B1 *212:37 2.93747e-05
7 *99:10 *908:A_N 0.000649603
8 *99:10 *133:75 0.000185755
9 *99:18 *948:A 0.000213379
10 *99:18 *187:24 0.000468891
11 *1053:RESET_B *99:18 0.00069137
12 *35:10 *99:10 8.93663e-05
13 *59:18 *99:18 0.000696453
*RES
1 *908:X *99:10 47.9014 
2 *99:10 *99:18 49.8029 
3 *99:18 *909:B1 38.6214 
*END

*D_NET *100 0.00751989
*CONN
*I *911:A2 I *D sky130_fd_sc_hd__o211ai_4
*I *909:X O *D sky130_fd_sc_hd__o31a_1
*CAP
1 *911:A2 5.145e-05
2 *909:X 0.00146487
3 *100:10 0.000666234
4 *100:6 0.00207965
5 *100:6 *176:65 0.000335715
6 *100:6 *194:39 3.61365e-05
7 *100:6 *212:29 2.63049e-05
8 *100:10 *117:59 0
9 *100:10 *155:18 0.000203163
10 *100:10 *155:22 0.000438165
11 *100:10 *161:8 0
12 *32:14 *100:10 0.00134
13 *98:12 *100:10 0.000878198
*RES
1 *909:X *100:6 40.2964 
2 *100:6 *100:10 36.6257 
3 *100:10 *911:A2 38.6214 
*END

*D_NET *101 0.017783
*CONN
*I *998:A I *D sky130_fd_sc_hd__and2_1
*I *911:B1 I *D sky130_fd_sc_hd__o211ai_4
*I *910:X O *D sky130_fd_sc_hd__and4_2
*CAP
1 *998:A 0
2 *911:B1 0.000261672
3 *910:X 0.000315844
4 *101:18 0.00411996
5 *101:10 0.00417414
6 *911:B1 *102:12 0.000225399
7 *911:B1 *176:71 5.71002e-06
8 *911:B1 *203:75 7.13587e-05
9 *101:10 *902:D 0.000215086
10 *101:10 *154:10 0.000301116
11 *101:10 *195:12 0.000212986
12 *101:10 *195:158 9.58714e-05
13 *101:18 *993:B 4.39919e-05
14 *101:18 *102:14 0.000174758
15 *101:18 *102:45 0.000164881
16 *101:18 *116:34 0.000465048
17 *101:18 *117:59 9.13368e-06
18 *101:18 *123:14 0.000528208
19 *101:18 *161:20 0.000591018
20 *101:18 *184:88 4.8098e-05
21 *101:18 *192:96 8.35126e-06
22 *101:18 *192:115 9.57544e-05
23 *101:18 *197:41 0.000256201
24 *101:18 *197:55 0.00144927
25 *101:18 *199:41 0.000168532
26 *101:18 *210:72 4.7415e-05
27 *911:A1 *911:B1 0.000488737
28 *1075:RESET_B *101:18 2.04785e-05
29 *23:24 *101:18 0.00150731
30 *35:10 *911:B1 0.000186964
31 *35:10 *101:18 1.38978e-05
32 *86:39 *101:18 0.000932347
33 *86:93 *101:18 0.000287019
34 *87:44 *101:18 0.000112158
35 *92:14 *911:B1 0.00016091
36 *92:14 *101:18 2.33476e-05
*RES
1 *910:X *101:10 44.6182 
2 *101:10 *101:18 27.5397 
3 *101:18 *911:B1 46.4929 
4 *101:18 *998:A 38 
*END

*D_NET *102 0.0268712
*CONN
*I *223:DIODE I *D sky130_fd_sc_hd__diode_2
*I *1008:B1 I *D sky130_fd_sc_hd__a2bb2o_1
*I *912:A2 I *D sky130_fd_sc_hd__a21bo_4
*I *911:Y O *D sky130_fd_sc_hd__o211ai_4
*CAP
1 *223:DIODE 0
2 *1008:B1 0.000163642
3 *912:A2 0
4 *911:Y 8.27497e-05
5 *102:51 0.000402306
6 *102:47 0.00114672
7 *102:45 0.00522648
8 *102:22 0.000463983
9 *102:14 0.00502995
10 *102:12 0.000330294
11 *1008:B1 *920:B1 4.65192e-05
12 *1008:B1 *198:77 0.000100069
13 *102:12 *176:71 8.22421e-06
14 *102:12 *203:75 0.000268873
15 *102:14 *116:34 0.000124768
16 *102:14 *117:59 0.000668206
17 *102:22 *154:40 0.000132638
18 *102:22 *175:80 4.83824e-05
19 *102:22 *215:10 9.67842e-05
20 *102:22 *215:14 0.00015514
21 *102:45 *116:14 0
22 *102:45 *116:34 0.000478039
23 *102:45 *117:59 0.000918455
24 *102:45 *123:14 0
25 *102:45 *130:26 0.000118471
26 *102:45 *131:22 1.67837e-05
27 *102:45 *182:60 0
28 *102:45 *192:96 0.00131656
29 *102:45 *192:115 0.000547035
30 *102:45 *197:55 8.66883e-05
31 *102:45 *210:22 8.97299e-06
32 *102:45 *210:72 0
33 *102:47 *177:80 1.58893e-05
34 *102:47 *187:85 0.000560892
35 *102:47 *213:10 0.00273615
36 *102:51 *198:77 0.000217018
37 an[2] *102:45 0
38 an[7] *102:47 2.26497e-05
39 *911:A1 *102:12 2.18409e-05
40 *911:B1 *102:12 0.000225399
41 *21:12 *102:47 0.000233256
42 *21:16 *102:47 0.000924297
43 *35:10 *102:12 9.78317e-06
44 *36:24 *102:45 0.00163096
45 *60:8 *102:22 1.94812e-05
46 *83:38 *102:45 0.000119224
47 *85:16 *102:45 3.5202e-05
48 *86:43 *102:45 0.000383908
49 *86:93 *102:45 0.00138889
50 *101:18 *102:14 0.000174758
51 *101:18 *102:45 0.000164881
*RES
1 *911:Y *102:12 49.3246 
2 *102:12 *102:14 1.25813 
3 *102:14 *102:22 31.7311 
4 *102:22 *912:A2 23 
5 *102:14 *102:45 39.7099 
6 *102:45 *102:47 36.2396 
7 *102:47 *102:51 18.48 
8 *102:51 *1008:B1 25.5479 
9 *102:51 *223:DIODE 23 
*END

*D_NET *103 0.0395701
*CONN
*I *942:B I *D sky130_fd_sc_hd__and3_1
*I *924:B I *D sky130_fd_sc_hd__and3b_1
*I *990:A I *D sky130_fd_sc_hd__and3_1
*I *917:B I *D sky130_fd_sc_hd__and3_1
*I *913:A I *D sky130_fd_sc_hd__clkinv_4
*I *921:B I *D sky130_fd_sc_hd__and3_1
*I *1006:A I *D sky130_fd_sc_hd__and3_1
*I *975:A I *D sky130_fd_sc_hd__and3_1
*I *986:A I *D sky130_fd_sc_hd__and3_1
*I *926:A I *D sky130_fd_sc_hd__buf_2
*I *912:X O *D sky130_fd_sc_hd__a21bo_4
*CAP
1 *942:B 0
2 *924:B 4.33954e-05
3 *990:A 0.000536211
4 *917:B 0.000447399
5 *913:A 0
6 *921:B 0
7 *1006:A 0
8 *975:A 0
9 *986:A 0
10 *926:A 0
11 *912:X 0.000145056
12 *103:209 0.000642593
13 *103:175 0.00108131
14 *103:130 0.00119352
15 *103:113 0.00167726
16 *103:102 0.000566915
17 *103:84 0.000237199
18 *103:76 0.000262695
19 *103:74 0.000980063
20 *103:68 0.000938903
21 *103:66 0.00123908
22 *103:52 0.00248677
23 *103:38 0.00259374
24 *103:24 0.00149822
25 *103:20 0.00153313
26 *103:14 0.00204679
27 *917:B *135:24 2.11157e-05
28 *917:B *140:26 3.10064e-05
29 *917:B *167:32 0.000573652
30 *917:B *208:110 7.61263e-05
31 *917:B *209:44 0.00043644
32 *917:B *214:43 3.7681e-05
33 *917:B *214:62 4.67488e-05
34 *990:A *1080:CLK 5.95606e-05
35 *990:A *159:41 0.00016635
36 *990:A *181:92 5.61255e-06
37 *990:A *209:18 0.000183966
38 *103:14 *186:46 1.05841e-05
39 *103:14 *205:36 0.000134507
40 *103:20 *112:71 4.98295e-05
41 *103:20 *120:14 0.000944362
42 *103:20 *126:136 2.75733e-06
43 *103:20 *149:24 0.000476749
44 *103:20 *188:14 0.000361122
45 *103:20 *188:102 0.000371077
46 *103:20 *205:36 0.000757372
47 *103:20 *214:72 6.70361e-05
48 *103:20 *214:82 4.22172e-05
49 *103:24 *158:18 0.000344463
50 *103:38 *158:18 0.000847871
51 *103:38 *181:92 1.86692e-05
52 *103:38 *185:43 3.07067e-05
53 *103:38 *189:61 0
54 *103:38 *203:34 3.40618e-05
55 *103:38 *205:26 2.79592e-05
56 *103:52 *114:20 0
57 *103:52 *126:82 0
58 *103:52 *183:81 0.000202435
59 *103:52 *183:87 0
60 *103:52 *185:43 9.94087e-05
61 *103:52 *203:34 0
62 *103:52 *206:12 0.00013448
63 *103:52 *208:93 1.07299e-05
64 *103:66 *112:137 0.000127876
65 *103:66 *140:26 0.000273348
66 *103:66 *164:31 2.18286e-05
67 *103:66 *167:32 0.000395045
68 *103:66 *197:20 0.000711213
69 *103:68 *112:137 0.000122599
70 *103:68 *164:31 6.70361e-05
71 *103:74 *918:A 0.000412516
72 *103:74 *112:137 0.000358938
73 *103:74 *164:31 0.000836283
74 *103:76 *918:A 0.000100069
75 *103:76 *164:31 9.77405e-05
76 *103:84 *109:12 4.37152e-05
77 *103:84 *112:8 0.000111547
78 *103:84 *148:10 0
79 *103:84 *199:18 7.11274e-06
80 *103:102 *975:C 0.000108655
81 *103:102 *148:10 0
82 *103:102 *148:29 0
83 *103:102 *162:38 0.000154632
84 *103:102 *162:48 2.73376e-05
85 *103:102 *164:10 0
86 *103:102 *170:18 0.000277167
87 *103:102 *194:95 8.50457e-05
88 *103:102 *195:73 1.21513e-05
89 *103:102 *199:18 0.000143027
90 *103:102 *201:50 0.000154632
91 *103:102 *219:10 9.48994e-06
92 *103:113 *169:14 0.000757292
93 *103:113 *170:18 0.000732001
94 *103:113 *186:29 1.05887e-05
95 *103:130 *921:C 3.85863e-06
96 *103:130 *109:6 0.00120879
97 *103:130 *173:10 1.83344e-05
98 *103:130 *195:104 0.000258772
99 *103:130 *197:20 0.00012991
100 *103:130 *221:22 0.000102203
101 *103:175 *114:20 2.11157e-05
102 *103:175 *181:92 0.000117196
103 *103:175 *189:61 7.06542e-05
104 *103:175 *191:41 6.85548e-05
105 *103:175 *205:12 6.17456e-05
106 *103:175 *205:26 0.000202038
107 *103:175 *209:18 3.17109e-05
108 *103:209 *893:A 0.000267096
109 *103:209 *118:14 0.000227476
110 *103:209 *126:128 9.78729e-06
111 *103:209 *126:136 6.69637e-06
112 *103:209 *161:20 7.89883e-05
113 *103:209 *183:16 2.92911e-06
114 *103:209 *183:28 7.89883e-05
115 *103:209 *210:72 0.00011643
116 *890:B *103:38 1.96015e-05
117 *1059:RESET_B *103:52 3.52392e-05
118 *20:8 *103:66 9.64943e-05
119 *20:94 *103:52 5.73539e-05
120 *28:6 *103:20 0.00118814
121 *28:18 *103:24 0
122 *28:18 *103:38 0
123 *37:14 *103:84 5.79559e-05
124 *43:24 *103:38 2.55744e-05
125 *45:10 *103:102 0
126 *53:22 *103:66 0.000373571
127 *61:22 *103:175 0.000262397
128 *80:16 *103:38 2.04088e-05
129 *83:10 *103:14 1.83408e-05
130 *83:10 *103:20 1.81646e-05
131 *83:10 *103:209 1.3242e-05
132 *84:39 *103:38 0
133 *85:42 *103:209 0.000128282
134 *93:30 *924:B 5.56356e-05
135 *93:30 *103:38 9.4798e-06
136 *93:40 *103:20 0.000230734
137 *93:110 *103:52 0
138 *93:126 *103:52 0.000170483
139 *95:14 *103:130 8.12305e-05
140 *95:21 *103:66 0.000708695
*RES
1 *912:X *103:14 41.3143 
2 *103:14 *103:20 49.075 
3 *103:20 *103:24 20.075 
4 *103:24 *103:38 48.3023 
5 *103:38 *103:52 38.1318 
6 *103:52 *103:66 36.5959 
7 *103:66 *103:68 1.57429 
8 *103:68 *103:74 11.2686 
9 *103:74 *103:76 1.09786 
10 *103:76 *103:84 34.2879 
11 *103:84 *926:A 23 
12 *103:76 *986:A 23 
13 *103:74 *103:102 40.5436 
14 *103:102 *975:A 23 
15 *103:68 *103:113 41.0614 
16 *103:113 *1006:A 23 
17 *103:113 *103:130 49.3679 
18 *103:130 *921:B 23 
19 *103:66 *913:A 23 
20 *103:52 *917:B 49.0883 
21 *103:38 *103:175 38.0962 
22 *103:175 *990:A 45.4779 
23 *103:24 *924:B 38.6214 
24 *103:14 *103:209 39.7979 
25 *103:209 *942:B 38 
*END

*D_NET *104 0.00399083
*CONN
*I *917:A I *D sky130_fd_sc_hd__and3_1
*I *915:Y O *D sky130_fd_sc_hd__nand2_1
*CAP
1 *917:A 0.000330306
2 *915:Y 0.000602512
3 *104:12 0.000932819
4 *917:A *135:24 0.000205337
5 *917:A *189:61 0.00031951
6 *917:A *189:63 1.23701e-05
7 *917:A *191:41 0.000461782
8 *917:A *208:110 0.000366419
9 *104:12 *1080:CLK 0.000531726
10 *104:12 *181:92 0.000228049
*RES
1 *915:Y *104:12 47.3629 
2 *104:12 *917:A 48.005 
*END

*D_NET *105 0.0163697
*CONN
*I *917:C I *D sky130_fd_sc_hd__and3_1
*I *916:X O *D sky130_fd_sc_hd__or2_1
*CAP
1 *917:C 0.000110805
2 *916:X 0
3 *105:16 0.0052805
4 *105:6 0.0051697
5 *917:C *896:A1 3.06991e-05
6 *105:16 *131:22 0.000799792
7 *105:16 *135:16 0.00111119
8 *105:16 *167:32 0.000925973
9 *932:C *917:C 8.26212e-05
10 *932:C *105:16 0.000123988
11 *22:14 *105:16 0
12 *26:16 *105:16 0.00103897
13 *32:14 *105:16 0
14 *76:16 *105:16 0.00147352
15 *91:27 *105:16 0.000175181
16 *93:120 *105:16 4.67227e-05
*RES
1 *916:X *105:6 38 
2 *105:6 *105:16 47.5982 
3 *105:16 *917:C 39.4396 
*END

*D_NET *106 0.011436
*CONN
*I *918:A I *D sky130_fd_sc_hd__clkbuf_1
*I *917:X O *D sky130_fd_sc_hd__and3_1
*CAP
1 *918:A 0.000609331
2 *917:X 0.000723864
3 *106:14 0.00106109
4 *106:8 0.00117563
5 *918:A *922:A 0.00153667
6 *918:A *112:14 0.00016664
7 *918:A *112:137 9.5877e-05
8 *918:A *164:18 0.00127891
9 *918:A *164:31 0.00014861
10 *106:8 *896:A1 0.000181409
11 *106:8 *184:62 6.52569e-05
12 *106:8 *184:103 0.000648211
13 *106:8 *214:43 0.000224877
14 *106:14 *112:18 5.45238e-05
15 *106:14 *152:14 2.05503e-05
16 *106:14 *166:65 0.000211139
17 *1073:RESET_B *106:8 0.000198809
18 *31:12 *106:8 6.17437e-06
19 *46:10 *106:14 0.000381627
20 *63:18 *106:14 0.000768082
21 *89:10 *106:8 0.00136612
22 *103:74 *918:A 0.000412516
23 *103:76 *918:A 0.000100069
*RES
1 *917:X *106:8 45.0814 
2 *106:8 *106:14 41.0614 
3 *106:14 *918:A 45.0607 
*END

*D_NET *107 0.00314054
*CONN
*I *921:A I *D sky130_fd_sc_hd__and3_1
*I *919:Y O *D sky130_fd_sc_hd__nand3_1
*CAP
1 *921:A 0.000442237
2 *919:Y 0.000729165
3 *107:10 0.0011714
4 *921:A *921:C 5.49237e-05
5 *921:A *181:28 0.000457969
6 *107:10 *119:37 0
7 *107:10 *198:51 2.90257e-05
8 *107:10 *206:28 3.7122e-06
9 *107:10 *218:10 0.000234542
10 *107:10 *220:31 1.75605e-05
11 *70:16 *107:10 0
*RES
1 *919:Y *107:10 48.3571 
2 *107:10 *921:A 45.3121 
*END

*D_NET *108 0.00744743
*CONN
*I *921:C I *D sky130_fd_sc_hd__and3_1
*I *920:X O *D sky130_fd_sc_hd__a21o_1
*CAP
1 *921:C 0.000866395
2 *920:X 7.9296e-05
3 *108:18 0.00165431
4 *108:14 0.00121479
5 *108:8 0.00050618
6 *921:C *1002:B 0.00014384
7 *921:C *181:28 0.000379845
8 *921:C *221:22 0.00018029
9 *108:8 *216:14 0
10 *108:18 *117:16 0.000332422
11 *108:18 *167:47 0.000241606
12 *108:18 *168:8 0
13 *108:18 *172:8 0.000660301
14 *108:18 *177:117 0.000259521
15 *108:18 *192:10 1.94812e-05
16 *108:18 *207:18 0.000141897
17 *921:A *921:C 5.49237e-05
18 *26:24 *108:18 0
19 *41:16 *108:14 0.000574568
20 *70:8 *921:C 8.26478e-05
21 *74:14 *108:8 5.12605e-05
22 *103:130 *921:C 3.85863e-06
*RES
1 *920:X *108:8 39.5536 
2 *108:8 *108:14 36.3386 
3 *108:14 *108:18 36.2736 
4 *108:18 *921:C 41.7257 
*END

*D_NET *109 0.011601
*CONN
*I *922:A I *D sky130_fd_sc_hd__clkbuf_1
*I *921:X O *D sky130_fd_sc_hd__and3_1
*CAP
1 *922:A 0.000615677
2 *921:X 0.000572313
3 *109:12 0.00120782
4 *109:6 0.00116445
5 *922:A *112:14 5.3304e-05
6 *922:A *153:14 4.94033e-05
7 *922:A *157:8 0.000985927
8 *922:A *164:18 0.00013223
9 *109:6 *1006:B 9.79925e-05
10 *109:6 *133:30 6.83739e-05
11 *109:6 *188:61 0.000162571
12 *109:6 *195:104 0.00011505
13 *109:12 *1014:A2 9.83566e-06
14 *109:12 *112:8 0.000109275
15 *109:12 *173:18 2.29244e-05
16 *109:12 *184:33 0
17 *109:12 *184:54 0
18 *109:12 *196:26 0
19 *109:12 *199:18 0.000728772
20 *904:B *109:6 0.000132671
21 *918:A *922:A 0.00153667
22 *1074:RESET_B *109:12 9.87447e-06
23 *20:22 *109:6 0.000630401
24 *20:32 *109:6 0.000234367
25 *32:10 *922:A 0.000181125
26 *40:8 *922:A 0.000191394
27 *93:126 *109:6 0.00023585
28 *95:14 *109:6 0.0011002
29 *103:84 *109:12 4.37152e-05
30 *103:130 *109:6 0.00120879
*RES
1 *921:X *109:6 49.3486 
2 *109:6 *109:12 41.7657 
3 *109:12 *922:A 43.6521 
*END

*D_NET *110 0.00793289
*CONN
*I *924:C I *D sky130_fd_sc_hd__and3b_1
*I *923:X O *D sky130_fd_sc_hd__a31o_1
*CAP
1 *924:C 0.00120846
2 *923:X 0.000177862
3 *110:12 0.00178973
4 *110:8 0.000759133
5 *924:C *930:A 0.000223692
6 *924:C *962:A 0.000262574
7 *924:C *962:B 5.50581e-05
8 *924:C *111:8 8.5482e-05
9 *924:C *137:33 1.71761e-05
10 *924:C *139:8 0.000632985
11 *924:C *165:29 0.000400582
12 *924:C *191:22 0.000124306
13 *110:8 *198:62 0.000226899
14 *110:12 *155:84 7.17917e-05
15 *110:12 *194:16 0.000641302
16 *110:12 *207:43 0.00100647
17 *1080:RESET_B *110:12 0.000178225
18 *80:10 *110:12 2.26497e-05
19 *84:60 *110:12 4.85126e-05
*RES
1 *923:X *110:8 40.5271 
2 *110:8 *110:12 33.4564 
3 *110:12 *924:C 46.49 
*END

*D_NET *111 0.00960392
*CONN
*I *925:A I *D sky130_fd_sc_hd__buf_1
*I *924:X O *D sky130_fd_sc_hd__and3b_1
*CAP
1 *925:A 0
2 *924:X 0
3 *111:14 0.00077794
4 *111:8 0.00290641
5 *111:4 0.00212847
6 *111:8 *165:29 0.00157939
7 *111:14 *1042:A 0
8 *111:14 *123:14 0
9 *111:14 *154:10 1.24376e-05
10 *111:14 *173:90 0.000795677
11 *111:14 *195:158 9.5876e-06
12 *111:14 *210:22 0.00015399
13 *111:14 *210:72 0.000351661
14 *111:14 *217:16 0.000745874
15 *924:C *111:8 8.5482e-05
16 *41:8 *111:14 5.70007e-05
*RES
1 *924:X *111:4 23 
2 *111:4 *111:8 42.7779 
3 *111:8 *111:14 35.9007 
4 *111:14 *925:A 23 
*END

*D_NET *112 0.043392
*CONN
*I *1009:B1 I *D sky130_fd_sc_hd__o211a_1
*I *963:A I *D sky130_fd_sc_hd__and3_1
*I *1000:C1 I *D sky130_fd_sc_hd__o211a_1
*I *981:C1 I *D sky130_fd_sc_hd__o221a_1
*I *936:A I *D sky130_fd_sc_hd__and3_1
*I *929:A I *D sky130_fd_sc_hd__and3_1
*I *951:A I *D sky130_fd_sc_hd__and3_1
*I *967:A I *D sky130_fd_sc_hd__and3_1
*I *956:A I *D sky130_fd_sc_hd__and3_1
*I *947:A I *D sky130_fd_sc_hd__and3_1
*I *926:X O *D sky130_fd_sc_hd__buf_2
*CAP
1 *1009:B1 1.42596e-05
2 *963:A 0
3 *1000:C1 0
4 *981:C1 0
5 *936:A 0
6 *929:A 0
7 *951:A 0
8 *967:A 0
9 *956:A 2.77218e-05
10 *947:A 0
11 *926:X 5.11018e-05
12 *112:164 0.000397882
13 *112:151 0.000223905
14 *112:141 0.0012428
15 *112:137 0.00151664
16 *112:130 0.00087636
17 *112:117 0.0018557
18 *112:102 0.000565124
19 *112:96 0.00216639
20 *112:75 0.000748519
21 *112:71 0.00081683
22 *112:56 0.00074839
23 *112:52 0.00177109
24 *112:39 0.000652238
25 *112:30 0.000892604
26 *112:24 0.00221449
27 *112:18 0.00246036
28 *112:14 0.0020329
29 *112:8 0.000356212
30 *956:A *134:18 5.3304e-05
31 *956:A *144:6 2.64616e-05
32 *1009:B1 *1009:A2 3.81033e-05
33 *1009:B1 *172:14 5.90675e-06
34 *112:18 *146:124 0.000267279
35 *112:18 *152:14 2.05503e-05
36 *112:18 *166:65 0.000233678
37 *112:18 *168:16 0.000235876
38 *112:18 *176:97 0.000253966
39 *112:18 *204:43 9.02578e-05
40 *112:18 *214:31 0.00032993
41 *112:24 *183:139 0.000759133
42 *112:30 *125:14 1.75053e-05
43 *112:30 *127:12 0.00146183
44 *112:30 *128:6 0.000371944
45 *112:39 *162:26 0.00022104
46 *112:39 *176:97 0.000327319
47 *112:52 *134:18 6.04112e-05
48 *112:52 *144:6 6.37845e-05
49 *112:52 *159:24 0.000113013
50 *112:52 *196:16 0.00041104
51 *112:56 *142:18 9.56137e-05
52 *112:56 *142:32 0.000581526
53 *112:56 *143:6 2.35777e-05
54 *112:56 *146:24 0.000263538
55 *112:56 *191:86 0.00047908
56 *112:71 *124:10 0.000318558
57 *112:71 *131:10 0.000123852
58 *112:71 *159:24 0.000173118
59 *112:71 *196:10 0.00054392
60 *112:71 *196:16 0.00022399
61 *112:71 *214:96 7.57281e-06
62 *112:75 *130:26 0.000101278
63 *112:96 *972:B1 8.08692e-06
64 *112:96 *130:26 0.00056031
65 *112:96 *142:50 8.86468e-05
66 *112:96 *146:138 5.43589e-05
67 *112:96 *146:148 6.7705e-05
68 *112:96 *197:33 4.82958e-05
69 *112:102 *158:8 0.000666328
70 *112:102 *208:34 4.96928e-05
71 *112:117 *936:C 1.95448e-05
72 *112:117 *120:6 0.000853295
73 *112:117 *130:26 0.000585641
74 *112:117 *182:32 0.000517104
75 *112:117 *182:36 3.73464e-05
76 *112:130 *981:B2 1.41944e-05
77 *112:130 *152:26 4.77164e-06
78 *112:130 *176:170 0.000183093
79 *112:130 *192:121 0
80 *112:130 *196:133 0
81 *112:130 *200:64 0.000185466
82 *112:130 *202:51 0.000185239
83 *112:137 *141:18 6.2403e-05
84 *112:137 *164:31 0.000113498
85 *112:137 *172:14 4.96303e-05
86 *112:141 *1009:A2 0.000113379
87 *112:141 *141:18 0.000357547
88 *112:141 *172:14 1.10658e-05
89 *112:141 *204:58 4.18667e-05
90 *112:151 *1000:B1 5.12055e-06
91 *112:151 *119:37 6.55431e-06
92 *112:151 *160:18 0.00014853
93 *112:151 *164:37 1.02029e-05
94 *112:151 *166:29 2.62931e-05
95 *112:151 *166:53 5.47927e-05
96 *112:151 *175:153 0.000254957
97 *112:151 *202:34 0.000167215
98 *112:164 *139:14 3.41998e-06
99 *112:164 *160:18 0.000142121
100 *112:164 *164:37 0.000105122
101 *112:164 *202:34 9.5877e-05
102 *918:A *112:14 0.00016664
103 *918:A *112:137 9.5877e-05
104 *922:A *112:14 5.3304e-05
105 *1060:RESET_B *112:130 0.000223085
106 *1071:RESET_B *112:130 3.25485e-05
107 *20:8 *112:137 4.21281e-05
108 *22:18 *112:30 0.00015169
109 *23:24 *112:102 0.000583183
110 *30:12 *112:102 9.36329e-05
111 *36:24 *112:96 0.000143757
112 *36:24 *112:117 0.000284678
113 *37:10 *112:30 0.000108151
114 *39:6 *112:141 0.000942365
115 *39:6 *112:164 0.000138607
116 *46:10 *112:18 0.00106137
117 *46:10 *112:39 0.000580952
118 *59:18 *112:30 4.68559e-05
119 *65:10 *112:164 0.000614248
120 *79:14 *112:24 9.41704e-05
121 *79:28 *112:102 4.28979e-05
122 *83:38 *112:75 0.000219383
123 *83:38 *112:96 0.000224317
124 *85:16 *112:117 0
125 *93:20 *112:130 0.000685338
126 *103:20 *112:71 4.98295e-05
127 *103:66 *112:137 0.000127876
128 *103:68 *112:137 0.000122599
129 *103:74 *112:137 0.000358938
130 *103:84 *112:8 0.000111547
131 *106:14 *112:18 5.45238e-05
132 *109:12 *112:8 0.000109275
*RES
1 *926:X *112:8 39.5536 
2 *112:8 *112:14 19.93 
3 *112:14 *112:18 35.9214 
4 *112:18 *112:24 47.2964 
5 *112:24 *112:30 36.0871 
6 *112:30 *947:A 23 
7 *112:18 *112:39 23.2443 
8 *112:39 *956:A 23.6214 
9 *112:39 *112:52 22.3536 
10 *112:52 *112:56 29.9143 
11 *112:56 *967:A 23 
12 *112:52 *112:71 44.4171 
13 *112:71 *112:75 17.5271 
14 *112:75 *951:A 23 
15 *112:75 *112:96 29.6836 
16 *112:96 *112:102 35.6461 
17 *112:102 *929:A 23 
18 *112:96 *112:117 37.2149 
19 *112:117 *936:A 23 
20 *112:117 *112:130 48.8914 
21 *112:130 *981:C1 23 
22 *112:14 *112:137 15.8671 
23 *112:137 *112:141 13.5057 
24 *112:141 *112:151 35.9864 
25 *112:151 *1000:C1 23 
26 *112:141 *112:164 40.1707 
27 *112:164 *963:A 23 
28 *112:137 *1009:B1 23.4971 
*END

*D_NET *113 0.0045702
*CONN
*I *929:B I *D sky130_fd_sc_hd__and3_1
*I *927:Y O *D sky130_fd_sc_hd__nand2_1
*CAP
1 *929:B 0
2 *927:Y 0.00131083
3 *113:6 0.00131083
4 *113:6 *208:55 0.00183436
5 *92:8 *113:6 1.41129e-05
6 *92:14 *113:6 0.000100061
*RES
1 *927:Y *113:6 44.5843 
2 *113:6 *929:B 23 
*END

*D_NET *114 0.0108164
*CONN
*I *929:C I *D sky130_fd_sc_hd__and3_1
*I *928:X O *D sky130_fd_sc_hd__or2_1
*CAP
1 *929:C 0
2 *928:X 0.000125715
3 *114:30 0.00134252
4 *114:20 0.00298854
5 *114:8 0.00177173
6 *114:8 *1093:A 0.000191255
7 *114:20 *192:59 0.000302618
8 *114:30 *120:14 0.000346111
9 *114:30 *141:22 0.000225025
10 *114:30 *146:24 0.000254917
11 *114:30 *203:90 0.000184987
12 *114:30 *208:34 0.000497328
13 *114:30 *214:113 0.000775292
14 *895:A2 *114:30 0.000114907
15 *47:20 *114:20 0.00011673
16 *66:8 *114:30 8.27131e-05
17 *79:28 *114:30 0.000250819
18 *80:16 *114:20 0.000118744
19 *85:16 *114:30 0.000168614
20 *85:30 *114:30 8.04817e-05
21 *93:108 *114:20 0.00085626
22 *103:52 *114:20 0
23 *103:175 *114:20 2.11157e-05
*RES
1 *928:X *114:8 40.0507 
2 *114:8 *114:20 30.3062 
3 *114:20 *114:30 45.1704 
4 *114:30 *929:C 23 
*END

*D_NET *115 0.00912316
*CONN
*I *930:A I *D sky130_fd_sc_hd__clkbuf_1
*I *929:X O *D sky130_fd_sc_hd__and3_1
*CAP
1 *930:A 7.89132e-05
2 *929:X 7.34012e-05
3 *115:24 0.00118173
4 *115:14 0.00221736
5 *115:8 0.00118795
6 *930:A *165:29 0.000116554
7 *115:14 *176:153 0.000144284
8 *115:14 *176:170 5.3304e-05
9 *115:24 *981:B2 3.00339e-05
10 *115:24 *117:47 9.06755e-05
11 *115:24 *176:141 0.000720706
12 *115:24 *191:105 0.000333805
13 *115:24 *192:121 0.000270425
14 *115:24 *202:26 0.000305554
15 *924:C *930:A 0.000223692
16 *1071:RESET_B *115:24 1.18379e-05
17 *23:24 *115:8 2.29192e-05
18 *49:16 *115:24 0.000307776
19 *55:10 *115:24 0.000476005
20 *61:22 *115:24 9.0114e-05
21 *62:22 *115:24 1.41966e-05
22 *71:26 *115:14 0.0011464
23 *93:20 *115:24 2.55199e-05
*RES
1 *929:X *115:8 39.2014 
2 *115:8 *115:14 47.2964 
3 *115:14 *115:24 41.3395 
4 *115:24 *930:A 40.5271 
*END

*D_NET *116 0.0274265
*CONN
*I *933:B I *D sky130_fd_sc_hd__nor3_1
*I *931:Y O *D sky130_fd_sc_hd__a21oi_1
*CAP
1 *933:B 0
2 *931:Y 0.000305779
3 *116:34 0.0116872
4 *116:14 0.011993
5 *116:14 *931:B1 7.51453e-06
6 *116:14 *197:87 0
7 *116:14 *210:72 0
8 *116:14 *213:10 0
9 *116:34 *117:59 0.000222712
10 *116:34 *123:14 0.000248734
11 *116:34 *152:26 0.000279962
12 *116:34 *161:20 0.000141677
13 *116:34 *195:22 0.000118729
14 *116:34 *200:35 0.00010923
15 *116:34 *200:64 0.000118729
16 *116:34 *208:44 0.000108326
17 *116:34 *210:72 0.000175945
18 an[2] *116:14 4.57385e-05
19 *931:A2 *116:14 9.03364e-06
20 *23:24 *116:34 0.000128303
21 *76:16 *116:34 0.000292029
22 *86:93 *116:34 0.000365996
23 *101:18 *116:34 0.000465048
24 *102:14 *116:34 0.000124768
25 *102:45 *116:14 0
26 *102:45 *116:34 0.000478039
*RES
1 *931:Y *116:14 49.2402 
2 *116:14 *116:34 47.4948 
3 *116:34 *933:B 23 
*END

*D_NET *117 0.0337848
*CONN
*I *934:B I *D sky130_fd_sc_hd__or2_1
*I *933:C I *D sky130_fd_sc_hd__nor3_1
*I *935:B I *D sky130_fd_sc_hd__nand2_1
*I *932:X O *D sky130_fd_sc_hd__and3_1
*CAP
1 *934:B 0
2 *933:C 0
3 *935:B 0
4 *932:X 0.000793857
5 *117:76 0.00115355
6 *117:59 0.0021362
7 *117:47 0.00793387
8 *117:39 0.00530604
9 *117:29 0.00157077
10 *117:16 0.000692271
11 *117:10 0.00160111
12 *117:8 0.000793857
13 *117:8 *1008:A1_N 0.000116564
14 *117:8 *1008:A2_N 0.000344596
15 *117:8 *1048:A 0.000136738
16 *117:8 *119:45 2.64616e-05
17 *117:16 *119:6 5.82853e-05
18 *117:16 *172:8 0.000786644
19 *117:16 *210:40 0
20 *117:29 *971:A 1.05235e-05
21 *117:29 *123:14 8.62783e-05
22 *117:29 *146:10 3.32082e-06
23 *117:29 *155:84 0.000423825
24 *117:29 *172:8 7.60343e-05
25 *117:29 *217:16 0
26 *117:39 *173:72 0.00012381
27 *117:39 *199:80 0.000578072
28 *117:39 *217:16 0.000578072
29 *117:47 *126:97 0.000713663
30 *117:47 *129:24 1.88166e-05
31 *117:47 *130:26 1.50433e-05
32 *117:47 *131:22 7.74804e-05
33 *117:47 *148:41 7.95147e-06
34 *117:47 *155:51 8.66403e-05
35 *117:47 *184:74 2.32089e-05
36 *117:47 *196:89 3.71712e-05
37 *117:47 *202:24 0.000303774
38 *117:47 *214:96 6.53079e-05
39 *117:59 *131:22 0.000222828
40 *117:59 *161:20 0
41 *117:76 *977:A 4.36436e-05
42 *117:76 *200:35 0.000172848
43 *117:76 *210:72 4.77164e-06
44 *933:A *117:59 9.65021e-05
45 *1055:RESET_B *117:59 0.000271741
46 *1080:RESET_B *117:29 0.000310463
47 *26:24 *117:16 2.156e-05
48 *39:14 *117:16 0.000842235
49 *39:14 *117:29 0.000814949
50 *47:20 *117:39 0.00055356
51 *54:20 *117:59 0.000182344
52 *62:22 *117:47 0.000529514
53 *75:8 *117:8 9.99662e-05
54 *79:28 *117:47 8.7741e-05
55 *84:60 *117:39 0.000555791
56 *91:12 *117:8 4.79544e-05
57 *93:20 *117:47 0
58 *93:94 *117:76 4.96811e-06
59 *100:10 *117:59 0
60 *101:18 *117:59 9.13368e-06
61 *102:14 *117:59 0.000668206
62 *102:45 *117:59 0.000918455
63 *108:18 *117:16 0.000332422
64 *115:24 *117:47 9.06755e-05
65 *116:34 *117:59 0.000222712
*RES
1 *932:X *117:8 37.4586 
2 *117:8 *117:10 15 
3 *117:10 *117:16 35.4864 
4 *117:16 *935:B 23 
5 *117:10 *117:29 49.8236 
6 *117:29 *117:39 48.8604 
7 *117:39 *117:47 25.7571 
8 *117:47 *117:59 39.7827 
9 *117:59 *933:C 23 
10 *117:47 *117:76 33.3837 
11 *117:76 *934:B 23 
*END

*D_NET *118 0.0101606
*CONN
*I *936:B I *D sky130_fd_sc_hd__and3_1
*I *934:X O *D sky130_fd_sc_hd__or2_1
*CAP
1 *936:B 0
2 *934:X 0.000456973
3 *118:42 0.000152805
4 *118:36 0.00185021
5 *118:32 0.0021904
6 *118:22 0.000859516
7 *118:14 0.000823489
8 *118:14 *126:128 0.000142173
9 *118:14 *126:136 3.71962e-05
10 *118:14 *162:14 3.27534e-05
11 *118:14 *188:121 1.16512e-05
12 *118:14 *189:18 7.44781e-05
13 *118:14 *205:36 0
14 *118:22 *132:14 0.000229283
15 *118:22 *183:28 0.000224156
16 *118:22 *187:14 3.47277e-05
17 *118:32 *122:20 8.97585e-05
18 *118:32 *154:40 0.000180218
19 *118:36 *187:43 0.000110041
20 *118:42 *142:16 0.000200136
21 *118:42 *176:135 6.36649e-05
22 *118:42 *209:66 0
23 *1077:D *118:22 3.7122e-06
24 *20:173 *118:32 4.89411e-05
25 *21:18 *118:36 0.00179746
26 *83:38 *118:32 0.000274425
27 *85:42 *118:14 4.49877e-05
28 *103:209 *118:14 0.000227476
*RES
1 *934:X *118:14 46.1407 
2 *118:14 *118:22 35.8414 
3 *118:22 *118:32 39.3214 
4 *118:32 *118:36 38.9664 
5 *118:36 *118:42 32.9621 
6 *118:42 *936:B 23 
*END

*D_NET *119 0.0195492
*CONN
*I *936:C I *D sky130_fd_sc_hd__and3_1
*I *939:A2 I *D sky130_fd_sc_hd__a211oi_1
*I *935:Y O *D sky130_fd_sc_hd__nand2_1
*CAP
1 *936:C 0.000374513
2 *939:A2 0
3 *935:Y 0.000534443
4 *119:45 0.00144417
5 *119:37 0.0019169
6 *119:24 0.00171352
7 *119:6 0.00309521
8 *936:C *142:16 0.000690208
9 *936:C *176:135 0.000304722
10 *119:6 *135:24 7.95762e-05
11 *119:6 *192:16 0.00135604
12 *119:24 *135:24 0.000111276
13 *119:24 *151:12 0.000217706
14 *119:24 *171:12 8.66403e-05
15 *119:24 *188:61 9.88518e-05
16 *119:24 *188:71 0.000164453
17 *119:24 *192:16 0.000141352
18 *119:24 *196:41 2.05503e-05
19 *119:24 *221:22 3.9563e-05
20 *119:37 *138:22 0.000824591
21 *119:37 *160:18 0.000108664
22 *119:37 *175:153 3.09919e-05
23 *119:37 *181:18 4.59507e-05
24 *119:37 *181:20 0.000202557
25 *119:37 *181:28 1.74126e-05
26 *119:37 *192:41 0.000605349
27 *119:45 *1039:A 0.000206647
28 *119:45 *139:14 0.000441252
29 *119:45 *142:16 0.000156901
30 *119:45 *159:41 0.000204885
31 *119:45 *160:18 0.000834803
32 *119:45 *176:135 0.000699214
33 *119:45 *192:41 0.000557296
34 *119:45 *214:62 0.000147324
35 *1069:RESET_B *119:24 4.36616e-05
36 *23:12 *119:37 2.44754e-05
37 *26:24 *119:24 0.000332933
38 *27:24 *119:24 0.000896631
39 *36:12 *119:37 2.46922e-05
40 *63:18 *119:24 0.000621893
41 *65:10 *119:37 0
42 *93:126 *119:24 2.05503e-05
43 *107:10 *119:37 0
44 *112:117 *936:C 1.95448e-05
45 *112:151 *119:37 6.55431e-06
46 *117:8 *119:45 2.64616e-05
47 *117:16 *119:6 5.82853e-05
*RES
1 *935:Y *119:6 38.3907 
2 *119:6 *119:24 45.8568 
3 *119:24 *939:A2 38 
4 *119:6 *119:37 49.5129 
5 *119:37 *119:45 44.0311 
6 *119:45 *936:C 47.8289 
*END

*D_NET *120 0.00663296
*CONN
*I *937:A I *D sky130_fd_sc_hd__clkbuf_1
*I *936:X O *D sky130_fd_sc_hd__and3_1
*CAP
1 *937:A 0
2 *936:X 0.00108748
3 *120:14 0.000599501
4 *120:6 0.00168698
5 *120:14 *142:32 0.000175903
6 *120:14 *183:47 2.02872e-05
7 *120:14 *192:82 9.41704e-05
8 *120:14 *208:34 0.000285867
9 *120:14 *214:82 0.00018197
10 *79:28 *120:14 4.30894e-05
11 *83:38 *120:6 0.000134468
12 *93:40 *120:14 0.000179473
13 *103:20 *120:14 0.000944362
14 *112:117 *120:6 0.000853295
15 *114:30 *120:14 0.000346111
*RES
1 *936:X *120:6 37.4379 
2 *120:6 *120:14 45.7014 
3 *120:14 *937:A 23 
*END

*D_NET *121 0.012633
*CONN
*I *939:A1 I *D sky130_fd_sc_hd__a211oi_1
*I *938:Y O *D sky130_fd_sc_hd__inv_2
*CAP
1 *939:A1 1.90868e-05
2 *938:Y 0.000103119
3 *121:14 0.00240261
4 *121:8 0.00248664
5 *939:A1 *126:37 2.05503e-05
6 *121:14 *155:22 0.00142777
7 *121:14 *156:10 0
8 *121:14 *175:14 0.000103258
9 *121:14 *184:16 0.000158422
10 *121:14 *184:33 0.000583736
11 *121:14 *221:12 0.000370596
12 *121:14 *221:22 0.00298602
13 *26:16 *121:14 0
14 *26:24 *121:14 0.000141169
15 *32:14 *121:14 0.00167978
16 *57:6 *121:14 0.00015022
17 *94:10 *121:14 0
*RES
1 *938:Y *121:8 39.0979 
2 *121:8 *121:14 46.5273 
3 *121:14 *939:A1 46.3211 
*END

*D_NET *122 0.00887424
*CONN
*I *942:A I *D sky130_fd_sc_hd__and3_1
*I *940:X O *D sky130_fd_sc_hd__or2_1
*CAP
1 *942:A 0
2 *940:X 0.000412425
3 *122:28 0.000183393
4 *122:20 0.00159535
5 *122:12 0.00182439
6 *122:12 *183:57 8.81512e-05
7 *122:12 *185:57 1.0092e-05
8 *122:12 *208:18 5.68297e-05
9 *122:12 *211:10 1.14977e-05
10 *122:12 *211:14 7.97656e-05
11 *122:20 *972:B1 0
12 *122:20 *993:B 9.86551e-06
13 *122:20 *123:22 2.05503e-05
14 *122:20 *130:26 0.00012001
15 *122:20 *142:50 0
16 *122:20 *146:148 3.09673e-05
17 *122:20 *159:24 0
18 *122:20 *183:57 5.0888e-05
19 *122:20 *196:89 2.95263e-05
20 *122:20 *202:10 0.000359981
21 *122:20 *211:10 0.000608703
22 *122:28 *994:B1 3.39192e-05
23 *122:28 *123:22 3.59538e-05
24 *122:28 *154:20 0.000183733
25 *122:28 *161:20 4.36457e-05
26 *122:28 *162:8 0.000265526
27 *122:28 *162:14 3.39102e-05
28 *122:28 *183:28 3.34818e-06
29 *122:28 *186:46 0.00052207
30 *1054:RESET_B *122:20 3.04338e-05
31 *20:119 *122:20 0.000845154
32 *20:129 *122:20 0.0002279
33 *20:173 *122:20 0
34 *24:12 *122:20 0.000156825
35 *25:12 *122:20 0.000275778
36 *79:14 *122:12 0.000304404
37 *93:38 *122:20 0.000329488
38 *118:32 *122:20 8.97585e-05
*RES
1 *940:X *122:12 45.0636 
2 *122:12 *122:20 46.1957 
3 *122:20 *122:28 36.7114 
4 *122:28 *942:A 23 
*END

*D_NET *123 0.0161186
*CONN
*I *942:C I *D sky130_fd_sc_hd__and3_1
*I *941:Y O *D sky130_fd_sc_hd__nand2_1
*CAP
1 *942:C 0
2 *941:Y 0.000564496
3 *123:22 0.000225302
4 *123:14 0.00334923
5 *123:8 0.00368842
6 *123:14 *993:B 4.6719e-05
7 *123:14 *155:84 0.000160579
8 *123:14 *195:158 3.87221e-06
9 *123:14 *199:41 0.00055009
10 *123:14 *210:22 0
11 *123:14 *210:72 0.00354509
12 *123:14 *217:16 0
13 *123:22 *154:20 0.000140259
14 *123:22 *154:26 6.12496e-06
15 *123:22 *154:34 9.41704e-05
16 *123:22 *162:8 0.000167759
17 *47:20 *123:14 0.00145927
18 *78:28 *123:14 4.51815e-05
19 *84:60 *123:14 4.1227e-05
20 *86:39 *123:14 0.00037042
21 *95:67 *123:8 0.00074064
22 *101:18 *123:14 0.000528208
23 *102:45 *123:14 0
24 *111:14 *123:14 0
25 *116:34 *123:14 0.000248734
26 *117:29 *123:14 8.62783e-05
27 *122:20 *123:22 2.05503e-05
28 *122:28 *123:22 3.59538e-05
*RES
1 *941:Y *123:8 46.2443 
2 *123:8 *123:14 42.0951 
3 *123:14 *123:22 27.5882 
4 *123:22 *942:C 23 
*END

*D_NET *124 0.00696402
*CONN
*I *943:A I *D sky130_fd_sc_hd__clkbuf_1
*I *942:X O *D sky130_fd_sc_hd__and3_1
*CAP
1 *943:A 0.000500817
2 *942:X 0
3 *124:10 0.00141375
4 *124:6 0.000912938
5 *943:A *155:39 0.000844787
6 *943:A *155:74 0.000373932
7 *943:A *191:69 0.000180843
8 *943:A *194:29 0.000536702
9 *124:10 *898:A2 8.36198e-05
10 *124:10 *132:14 7.18966e-05
11 *124:10 *154:34 0.000106388
12 *124:10 *159:24 2.16827e-05
13 *124:10 *162:26 0.000290382
14 *124:10 *183:28 0.000802633
15 *124:10 *196:10 0.000163547
16 *124:10 *196:16 0.000191195
17 *124:10 *201:34 4.29275e-05
18 *124:10 *214:96 2.31116e-05
19 *46:10 *124:10 6.16531e-05
20 *87:44 *124:10 2.26497e-05
21 *112:71 *124:10 0.000318558
*RES
1 *942:X *124:6 38 
2 *124:6 *124:10 36.9779 
3 *124:10 *943:A 36.9614 
*END

*D_NET *125 0.003662
*CONN
*I *947:B I *D sky130_fd_sc_hd__and3_1
*I *944:X O *D sky130_fd_sc_hd__a31o_1
*CAP
1 *947:B 0
2 *944:X 5.67095e-05
3 *125:14 0.000989415
4 *125:8 0.00104612
5 *125:14 *128:6 0.000271906
6 *125:14 *155:18 0
7 *125:14 *155:22 0
8 *125:14 *161:8 0.00126443
9 *93:60 *125:8 1.59094e-05
10 *112:30 *125:14 1.75053e-05
*RES
1 *944:X *125:8 38.6214 
2 *125:8 *125:14 36.0043 
3 *125:14 *947:B 23 
*END

*D_NET *126 0.0425887
*CONN
*I *949:B I *D sky130_fd_sc_hd__or2_1
*I *953:A2 I *D sky130_fd_sc_hd__a21o_1
*I *970:D I *D sky130_fd_sc_hd__and4_1
*I *946:A I *D sky130_fd_sc_hd__inv_2
*I *950:B I *D sky130_fd_sc_hd__nand2_1
*I *954:C I *D sky130_fd_sc_hd__and3_2
*I *945:X O *D sky130_fd_sc_hd__and4_2
*CAP
1 *949:B 0.000267856
2 *953:A2 0
3 *970:D 0.00011621
4 *946:A 0
5 *950:B 0.00119394
6 *954:C 0.000168501
7 *945:X 0
8 *126:136 0.000209865
9 *126:128 0.00076859
10 *126:116 0.00139428
11 *126:97 0.00317346
12 *126:82 0.000396241
13 *126:72 0.00368826
14 *126:61 0.00147601
15 *126:51 0.00184259
16 *126:47 0.00134834
17 *126:37 0.00188146
18 *126:16 0.0034191
19 *126:10 0.00275247
20 *126:6 0.000793051
21 *949:B *173:60 9.2467e-06
22 *949:B *193:16 2.05503e-05
23 *949:B *196:41 5.79559e-05
24 *950:B *188:75 0.00118569
25 *950:B *192:35 0.000175903
26 *950:B *209:44 0.000181805
27 *950:B *219:16 0.000265234
28 *954:C *982:B1 0.000187976
29 *954:C *188:40 0
30 *126:16 *982:A1 7.42621e-05
31 *126:16 *133:14 1.01436e-05
32 *126:16 *146:90 5.41288e-05
33 *126:16 *153:8 0.00070452
34 *126:16 *153:14 0
35 *126:16 *221:22 0.000154494
36 *126:37 *175:14 2.11066e-05
37 *126:37 *188:40 0
38 *126:37 *188:61 6.02049e-05
39 *126:37 *195:83 0
40 *126:37 *221:22 0.0002458
41 *126:47 *173:10 0
42 *126:47 *173:18 0.000175518
43 *126:47 *173:60 6.06279e-05
44 *126:47 *188:63 0.00117156
45 *126:47 *196:26 4.53082e-05
46 *126:51 *151:24 0.000669551
47 *126:61 *204:43 0.000291218
48 *126:61 *205:55 1.9885e-05
49 *126:72 *151:24 0.0012825
50 *126:82 *203:34 1.73677e-05
51 *126:82 *205:26 3.32315e-05
52 *126:97 *151:24 0.00163723
53 *126:97 *189:43 0
54 *126:97 *202:24 0.000145595
55 *126:97 *203:98 0.000706853
56 *126:116 *145:6 5.56279e-05
57 *126:116 *154:10 0.000111567
58 *126:116 *154:20 9.84851e-05
59 *126:116 *185:23 1.27408e-05
60 *126:116 *188:129 0.000252576
61 *126:116 *189:33 0
62 *126:116 *203:98 5.56164e-05
63 *126:116 *208:34 0.000132912
64 *126:128 *892:C 0.000612578
65 *126:128 *893:A 0.000621633
66 *126:128 *183:24 0.000222953
67 *126:128 *199:41 5.50106e-05
68 *126:128 *199:58 0.000248719
69 *126:136 *186:46 5.40337e-05
70 *126:136 *188:102 5.44109e-05
71 *939:A1 *126:37 2.05503e-05
72 *1069:RESET_B *949:B 5.56356e-05
73 *1074:RESET_B *949:B 6.93518e-05
74 *1074:RESET_B *126:47 7.91124e-05
75 *1079:RESET_B *126:47 0.000352303
76 *20:94 *126:82 3.36312e-06
77 *26:16 *126:10 0
78 *26:24 *949:B 0.000148737
79 *26:24 *126:47 0.000177452
80 *45:10 *126:37 0.000160704
81 *74:14 *126:61 0.0003291
82 *78:28 *126:51 0.000206034
83 *78:28 *126:72 0.000429371
84 *78:28 *126:97 0.00084673
85 *78:28 *126:116 0.000135143
86 *85:30 *126:128 5.02574e-05
87 *85:42 *126:128 0.000904565
88 *85:42 *126:136 7.20506e-05
89 *86:6 *126:128 5.56279e-05
90 *86:20 *126:136 9.4798e-06
91 *86:39 *126:128 0.000167358
92 *91:27 *126:82 4.3073e-05
93 *93:126 *126:61 1.91026e-05
94 *94:50 *126:47 9.41618e-05
95 *96:37 *970:D 0.000102588
96 *103:20 *126:136 2.75733e-06
97 *103:52 *126:82 0
98 *103:209 *126:128 9.78729e-06
99 *103:209 *126:136 6.69637e-06
100 *117:47 *126:97 0.000713663
101 *118:14 *126:128 0.000142173
102 *118:14 *126:136 3.71962e-05
*RES
1 *945:X *126:6 38 
2 *126:6 *126:10 30.2871 
3 *126:10 *126:16 42.4982 
4 *126:16 *954:C 41.0761 
5 *126:16 *126:37 38.0244 
6 *126:37 *126:47 38.6955 
7 *126:47 *126:51 9.70613 
8 *126:51 *126:61 32.3732 
9 *126:61 *950:B 44.605 
10 *126:51 *126:72 3.35627 
11 *126:72 *126:82 32.2015 
12 *126:82 *946:A 23 
13 *126:72 *126:97 31.7717 
14 *126:97 *970:D 39.5743 
15 *126:97 *126:116 43.0086 
16 *126:116 *126:128 35.01 
17 *126:128 *126:136 34.06 
18 *126:136 *953:A2 23 
19 *126:47 *949:B 48.7076 
*END

*D_NET *127 0.0116843
*CONN
*I *947:C I *D sky130_fd_sc_hd__and3_1
*I *946:Y O *D sky130_fd_sc_hd__inv_2
*CAP
1 *947:C 0
2 *946:Y 6.67941e-05
3 *127:12 0.00371365
4 *127:10 0.00371365
5 *127:8 6.67941e-05
6 *127:8 *203:34 8.50457e-05
7 *127:12 *183:77 0.00021159
8 *1056:D *127:12 0.00170901
9 *20:94 *127:12 0.000527078
10 *59:18 *127:12 0.000128858
11 *112:30 *127:12 0.00146183
*RES
1 *946:Y *127:8 39.2014 
2 *127:8 *127:10 15 
3 *127:10 *127:12 50.0354 
4 *127:12 *947:C 23 
*END

*D_NET *128 0.00727812
*CONN
*I *948:A I *D sky130_fd_sc_hd__buf_1
*I *947:X O *D sky130_fd_sc_hd__and3_1
*CAP
1 *948:A 0.000463303
2 *947:X 0.00084215
3 *128:12 0.00107932
4 *128:6 0.00145817
5 *948:A *143:6 0.00020613
6 *948:A *187:24 9.84851e-05
7 *948:A *191:86 0.000314147
8 *128:12 *146:70 0.00123535
9 *128:12 *175:63 9.12967e-05
10 *128:12 *175:80 0.000258587
11 *128:12 *177:20 2.05179e-05
12 *128:12 *183:145 0.000262565
13 *51:18 *948:A 8.15864e-05
14 *93:48 *128:12 9.28078e-06
15 *99:18 *948:A 0.000213379
16 *112:30 *128:6 0.000371944
17 *125:14 *128:6 0.000271906
*RES
1 *947:X *128:6 36.485 
2 *128:6 *128:12 47.7521 
3 *128:12 *948:A 33.6264 
*END

*D_NET *129 0.0140166
*CONN
*I *951:B I *D sky130_fd_sc_hd__and3_1
*I *949:X O *D sky130_fd_sc_hd__or2_1
*CAP
1 *951:B 0
2 *949:X 0.000150477
3 *129:24 0.00363308
4 *129:10 0.00378356
5 *129:10 *173:60 0.000153564
6 *129:10 *193:16 2.07642e-05
7 *129:24 *146:148 0.000158859
8 *129:24 *152:26 0.000915227
9 *129:24 *159:24 0.000294557
10 *129:24 *160:18 0.000337741
11 *129:24 *171:24 0.000174059
12 *129:24 *199:18 0.00299614
13 *129:24 *202:10 3.34818e-06
14 *1054:RESET_B *129:24 6.28098e-05
15 *36:24 *129:24 9.96119e-06
16 *64:10 *129:10 0.000207821
17 *86:59 *129:24 0.00109577
18 *117:47 *129:24 1.88166e-05
*RES
1 *949:X *129:10 49.1382 
2 *129:10 *129:24 39.4805 
3 *129:24 *951:B 38 
*END

*D_NET *130 0.0169334
*CONN
*I *951:C I *D sky130_fd_sc_hd__and3_1
*I *950:Y O *D sky130_fd_sc_hd__nand2_1
*CAP
1 *951:C 0
2 *950:Y 0.000230186
3 *130:26 0.00211512
4 *130:14 0.00348275
5 *130:8 0.00159782
6 *130:8 *219:16 0.000139754
7 *130:14 *145:10 0.00125238
8 *130:14 *177:61 0
9 *130:14 *177:80 0
10 *130:14 *198:43 0.00163985
11 *130:14 *198:45 0.000403473
12 *130:14 *198:51 0.00102798
13 *130:14 *202:26 0
14 *130:14 *214:130 2.3348e-05
15 *130:26 *142:50 8.0117e-05
16 *130:26 *146:148 0.000101144
17 *130:26 *202:24 0.00246487
18 *36:24 *130:26 0.000178196
19 *42:12 *130:14 0.000251601
20 *70:16 *130:14 0.000335386
21 *95:61 *130:14 0.000108681
22 *102:45 *130:26 0.000118471
23 *112:75 *130:26 0.000101278
24 *112:96 *130:26 0.00056031
25 *112:117 *130:26 0.000585641
26 *117:47 *130:26 1.50433e-05
27 *122:20 *130:26 0.00012001
*RES
1 *950:Y *130:8 41.0036 
2 *130:8 *130:14 42.6404 
3 *130:14 *130:26 40.8911 
4 *130:26 *951:C 23 
*END

*D_NET *131 0.0169462
*CONN
*I *952:A I *D sky130_fd_sc_hd__buf_1
*I *951:X O *D sky130_fd_sc_hd__and3_1
*CAP
1 *952:A 0
2 *951:X 5.47491e-05
3 *131:28 0.000946935
4 *131:22 0.00513164
5 *131:10 0.00423946
6 *131:10 *159:24 0.000123852
7 *131:22 *140:26 0.000131485
8 *131:22 *167:32 0.000373191
9 *131:28 *995:B 0.000326398
10 *131:28 *164:18 3.48843e-05
11 *131:28 *190:52 0.000129039
12 *1062:RESET_B *131:28 1.18379e-05
13 *1075:RESET_B *131:22 0
14 *11:21 *131:22 0.000833197
15 *20:32 *131:28 0.000132342
16 *22:14 *131:28 0
17 *35:10 *131:28 0.00152737
18 *36:24 *131:22 0.000101548
19 *38:24 *131:22 0.000220702
20 *50:26 *131:22 0.000666628
21 *57:6 *131:28 0.000323904
22 *62:22 *131:22 0
23 *73:16 *131:28 0.000396255
24 *76:14 *131:22 0
25 *102:45 *131:22 1.67837e-05
26 *105:16 *131:22 0.000799792
27 *112:71 *131:10 0.000123852
28 *117:47 *131:22 7.74804e-05
29 *117:59 *131:22 0.000222828
*RES
1 *951:X *131:10 47.7296 
2 *131:10 *131:22 34.7296 
3 *131:22 *131:28 42.7468 
4 *131:28 *952:A 23 
*END

*D_NET *132 0.00554291
*CONN
*I *956:B I *D sky130_fd_sc_hd__and3_1
*I *953:X O *D sky130_fd_sc_hd__a21o_1
*CAP
1 *956:B 0
2 *953:X 8.82293e-05
3 *132:14 0.0012127
4 *132:8 0.00130093
5 *132:8 *162:8 5.11621e-05
6 *132:14 *898:A2 3.88725e-05
7 *132:14 *162:14 0.0001575
8 *132:14 *183:28 0.000255532
9 *132:14 *201:34 0.000640051
10 *898:B1 *132:14 0.000132861
11 *45:10 *132:14 0.000344271
12 *51:24 *132:14 4.84293e-05
13 *84:39 *132:14 0.000175903
14 *87:44 *132:14 0.0007953
15 *118:22 *132:14 0.000229283
16 *124:10 *132:14 7.18966e-05
*RES
1 *953:X *132:8 39.0979 
2 *132:8 *132:14 42.55 
3 *132:14 *956:B 23 
*END

*D_NET *133 0.0261957
*CONN
*I *955:A I *D sky130_fd_sc_hd__inv_2
*I *958:B I *D sky130_fd_sc_hd__nor2_1
*I *959:B I *D sky130_fd_sc_hd__and2_1
*I *965:A3 I *D sky130_fd_sc_hd__a31o_1
*I *954:X O *D sky130_fd_sc_hd__and3_2
*CAP
1 *955:A 0.000139558
2 *958:B 0.000131164
3 *959:B 0
4 *965:A3 0
5 *954:X 0.00045133
6 *133:75 0.00124253
7 *133:60 0.00261323
8 *133:49 0.00116931
9 *133:34 0.00140619
10 *133:30 0.00058372
11 *133:22 0.00254562
12 *133:14 0.0040292
13 *955:A *1055:CLK 0.000488453
14 *955:A *198:33 0.000262103
15 *958:B *136:8 8.73233e-05
16 *133:14 *1074:CLK 9.33356e-05
17 *133:14 *153:8 5.73309e-05
18 *133:14 *153:14 0
19 *133:14 *179:35 6.85105e-05
20 *133:22 *1015:A2 7.61854e-05
21 *133:22 *173:60 2.5149e-05
22 *133:22 *175:14 8.27917e-05
23 *133:22 *175:137 4.78593e-05
24 *133:22 *177:148 8.06804e-06
25 *133:22 *215:32 6.11082e-05
26 *133:22 *215:40 0.00189152
27 *133:30 *177:148 2.23467e-05
28 *133:34 *141:12 1.63599e-05
29 *133:34 *189:71 8.19715e-05
30 *133:34 *191:58 1.05441e-05
31 *133:49 *906:C 4.95212e-05
32 *133:49 *959:A 0.000196073
33 *133:49 *137:8 5.85822e-06
34 *133:49 *141:12 2.08253e-05
35 *133:49 *183:87 0
36 *133:49 *189:63 1.02133e-05
37 *133:49 *189:71 0.000103686
38 *133:49 *190:20 0.000175903
39 *133:49 *191:58 0.000254171
40 *133:49 *209:44 0
41 *133:60 *136:8 2.64616e-05
42 *133:60 *176:14 0.000181614
43 *133:60 *179:35 9.23705e-06
44 *133:60 *179:64 0.000266428
45 *133:60 *188:22 0.000937102
46 *133:60 *204:16 0.000385998
47 *133:75 *136:12 0.000675591
48 *133:75 *176:71 0.00146749
49 *133:75 *212:25 0.000983011
50 *133:75 *212:80 0.000605965
51 *1016:A *133:22 0.000135037
52 *1074:D *133:14 0.000331478
53 *1074:D *133:60 0.00018835
54 *1075:RESET_B *133:75 0.000129945
55 *1082:RESET_B *133:22 5.00912e-05
56 *31:12 *133:60 0.000473374
57 *35:10 *133:75 0.000209799
58 *38:24 *133:60 4.03215e-05
59 *87:65 *133:75 7.00754e-06
60 *87:69 *133:75 2.11157e-05
61 *93:126 *133:30 0.000283002
62 *96:16 *133:49 1.39538e-05
63 *99:10 *133:75 0.000185755
64 *109:6 *133:30 6.83739e-05
65 *126:16 *133:14 1.01436e-05
*RES
1 *954:X *133:14 47.0521 
2 *133:14 *133:22 46.2786 
3 *133:22 *133:30 37.0221 
4 *133:30 *133:34 20.075 
5 *133:34 *965:A3 38 
6 *133:34 *133:49 32.8764 
7 *133:49 *959:B 23 
8 *133:14 *133:60 44.3314 
9 *133:60 *958:B 25.0507 
10 *133:60 *133:75 49.7171 
11 *133:75 *955:A 43.3857 
*END

*D_NET *134 0.00655237
*CONN
*I *956:C I *D sky130_fd_sc_hd__and3_1
*I *955:Y O *D sky130_fd_sc_hd__inv_2
*CAP
1 *956:C 0
2 *955:Y 0.000384285
3 *134:18 0.00155506
4 *134:12 0.00193935
5 *134:12 *1055:CLK 0.00022266
6 *134:12 *193:36 0.000571963
7 *134:12 *198:33 0.000114886
8 *134:18 *144:6 0.000312889
9 *134:18 *193:36 0.000410838
10 *134:18 *203:54 4.30894e-05
11 *956:A *134:18 5.3304e-05
12 *59:18 *134:12 0.000263733
13 *59:18 *134:18 0.000614286
14 *84:39 *134:18 5.61255e-06
15 *112:52 *134:18 6.04112e-05
*RES
1 *955:Y *134:12 48.9889 
2 *134:12 *134:18 39.1218 
3 *134:18 *956:C 23 
*END

*D_NET *135 0.0136515
*CONN
*I *957:A I *D sky130_fd_sc_hd__buf_1
*I *956:X O *D sky130_fd_sc_hd__and3_1
*CAP
1 *957:A 0
2 *956:X 0.000623532
3 *135:24 0.00113882
4 *135:16 0.00280586
5 *135:8 0.00229058
6 *135:16 *905:B 1.22906e-05
7 *135:16 *167:32 3.75474e-05
8 *135:16 *167:43 7.5095e-06
9 *135:16 *197:33 0.000922345
10 *135:24 *906:A 0.000233227
11 *135:24 *188:71 0.00077309
12 *135:24 *189:63 7.07537e-05
13 *135:24 *190:28 9.23705e-06
14 *135:24 *191:41 0.00115858
15 *135:24 *192:18 7.61231e-05
16 *135:24 *192:35 0.000120002
17 *135:24 *208:110 2.82225e-05
18 *917:A *135:24 0.000205337
19 *917:B *135:24 2.11157e-05
20 *67:16 *135:16 0.000110913
21 *84:39 *135:8 0.000718618
22 *91:27 *135:16 0.000210037
23 *95:21 *135:16 0.000350679
24 *95:32 *135:16 0.000421097
25 *95:55 *135:16 3.95573e-06
26 *105:16 *135:16 0.00111119
27 *119:6 *135:24 7.95762e-05
28 *119:24 *135:24 0.000111276
*RES
1 *956:X *135:8 46.2443 
2 *135:8 *135:16 31.8019 
3 *135:16 *135:24 42.3118 
4 *135:24 *957:A 23 
*END

*D_NET *136 0.0101148
*CONN
*I *960:B I *D sky130_fd_sc_hd__nor3_1
*I *958:Y O *D sky130_fd_sc_hd__nor2_1
*CAP
1 *960:B 0.00163274
2 *958:Y 0.000272973
3 *136:12 0.00253525
4 *136:8 0.00117548
5 *960:B *898:A1 9.03964e-06
6 *960:B *898:A2 3.57595e-06
7 *960:B *1046:A 6.17437e-06
8 *960:B *1092:A 2.64616e-05
9 *960:B *149:16 0.000148403
10 *960:B *177:22 9.00387e-05
11 *960:B *180:10 0.000303448
12 *960:B *180:99 0.000231339
13 *960:B *188:14 0.000318666
14 *136:12 *146:66 0.000236241
15 *136:12 *176:71 0.000990014
16 *898:B1 *960:B 1.46205e-05
17 *958:B *136:8 8.73233e-05
18 *20:66 *136:12 0.000592861
19 *87:65 *136:12 0.000535269
20 *90:10 *960:B 0.000202874
21 *133:60 *136:8 2.64616e-05
22 *133:75 *136:12 0.000675591
*RES
1 *958:Y *136:8 41.0036 
2 *136:8 *136:12 41.9079 
3 *136:12 *960:B 48.5821 
*END

*D_NET *137 0.0264196
*CONN
*I *966:C I *D sky130_fd_sc_hd__nand3_1
*I *960:C I *D sky130_fd_sc_hd__nor3_1
*I *962:B I *D sky130_fd_sc_hd__nand2_1
*I *961:B I *D sky130_fd_sc_hd__or2_1
*I *959:X O *D sky130_fd_sc_hd__and2_1
*CAP
1 *966:C 0.000359743
2 *960:C 0.000645271
3 *962:B 3.37541e-05
4 *961:B 0
5 *959:X 0.000203245
6 *137:63 0.00118513
7 *137:48 0.000860399
8 *137:33 0.000324333
9 *137:31 0.00213306
10 *137:20 0.000278112
11 *137:14 0.00228439
12 *137:8 0.00344174
13 *960:C *178:59 0.000477616
14 *960:C *203:90 0.000129634
15 *960:C *208:18 1.56665e-05
16 *960:C *214:82 0.000798653
17 *962:B *165:29 2.30804e-05
18 *966:C *966:B 5.3304e-05
19 *966:C *182:85 0.000229693
20 *137:8 *959:A 2.45549e-06
21 *137:14 *176:40 0.00241724
22 *137:14 *181:20 8.4047e-05
23 *137:14 *191:41 8.62876e-05
24 *137:20 *168:16 0.00028551
25 *137:20 *204:43 8.29007e-05
26 *137:31 *962:A 8.264e-05
27 *137:31 *165:29 0.000178517
28 *137:31 *181:18 0.000129297
29 *137:31 *181:20 0.000283772
30 *137:31 *183:111 0.000605528
31 *137:31 *191:22 0.00012599
32 *137:31 *191:41 0.000828906
33 *137:31 *209:24 0.000819255
34 *137:31 *209:44 6.92527e-05
35 *137:31 *209:66 0.000446131
36 *137:31 *214:70 0.000797434
37 *137:33 *962:A 0.000179934
38 *137:33 *165:29 0.00022034
39 *137:48 *189:43 0
40 *137:48 *203:98 3.83103e-05
41 *137:63 *167:18 0.00112736
42 *137:63 *182:72 0.00011573
43 *137:63 *182:81 7.34717e-05
44 *137:63 *185:23 0.00131783
45 *137:63 *189:33 0
46 *924:C *962:B 5.50581e-05
47 *924:C *137:33 1.71761e-05
48 *1067:D *960:C 0.0015713
49 *24:8 *960:C 0.000164443
50 *45:10 *137:20 0.000473919
51 *82:10 *137:63 0.000137238
52 *88:14 *966:C 2.13733e-05
53 *90:10 *960:C 6.42626e-05
54 *93:108 *137:48 7.57281e-06
55 *96:37 *137:48 2.64489e-05
56 *133:49 *137:8 5.85822e-06
*RES
1 *959:X *137:8 40.0507 
2 *137:8 *137:14 43.5029 
3 *137:14 *137:20 36.8357 
4 *137:20 *961:B 23 
5 *137:8 *137:31 49.2407 
6 *137:31 *137:33 2.52714 
7 *137:33 *962:B 24.0875 
8 *137:33 *137:48 33.3143 
9 *137:48 *960:C 43.6832 
10 *137:31 *137:63 36.9779 
11 *137:63 *966:C 44.3386 
*END

*D_NET *138 0.00990285
*CONN
*I *963:B I *D sky130_fd_sc_hd__and3_1
*I *961:X O *D sky130_fd_sc_hd__or2_1
*CAP
1 *963:B 0
2 *961:X 0.00145765
3 *138:22 0.000667742
4 *138:14 0.00113336
5 *138:6 0.00192327
6 *138:6 *166:53 0.000298974
7 *138:14 *961:A 0.000527807
8 *138:14 *173:72 4.64674e-05
9 *138:14 *175:137 0.000454758
10 *138:14 *191:43 0.000250475
11 *138:14 *193:16 9.23092e-06
12 *138:14 *203:12 0.000144501
13 *138:22 *181:18 5.58534e-05
14 *138:22 *181:20 0.000775092
15 *37:14 *138:6 0.00111274
16 *41:16 *138:22 0.00022034
17 *93:126 *138:14 0
18 *119:37 *138:22 0.000824591
*RES
1 *961:X *138:6 43.155 
2 *138:6 *138:14 41.7036 
3 *138:14 *138:22 44.2929 
4 *138:22 *963:B 23 
*END

*D_NET *139 0.00628337
*CONN
*I *963:C I *D sky130_fd_sc_hd__and3_1
*I *962:Y O *D sky130_fd_sc_hd__nand2_1
*CAP
1 *963:C 0
2 *962:Y 0.000556469
3 *139:14 0.00113866
4 *139:8 0.00169513
5 *139:14 *142:16 8.4047e-05
6 *139:14 *158:26 8.23679e-05
7 *139:14 *160:18 0.00101001
8 *139:14 *177:57 0.000105289
9 *139:14 *194:27 0.000161814
10 *139:14 *207:18 2.12505e-05
11 *924:C *139:8 0.000632985
12 *55:10 *139:14 0
13 *65:10 *139:14 0.00035067
14 *112:164 *139:14 3.41998e-06
15 *119:45 *139:14 0.000441252
*RES
1 *962:Y *139:8 45.2914 
2 *139:8 *139:14 43.1921 
3 *139:14 *963:C 23 
*END

*D_NET *140 0.0167798
*CONN
*I *964:A I *D sky130_fd_sc_hd__clkbuf_1
*I *963:X O *D sky130_fd_sc_hd__and3_1
*CAP
1 *964:A 0
2 *963:X 5.31061e-05
3 *140:26 0.00518919
4 *140:10 0.00524229
5 *140:10 *160:18 9.48043e-05
6 *140:10 *192:41 9.48043e-05
7 *140:26 *167:43 2.78404e-05
8 *140:26 *191:94 5.069e-05
9 *140:26 *209:44 0.00028827
10 *917:B *140:26 3.10064e-05
11 *38:24 *140:26 0.0012943
12 *53:22 *140:26 0.000483134
13 *62:22 *140:26 0
14 *70:16 *140:26 0.00347728
15 *91:54 *140:26 4.82567e-05
16 *103:66 *140:26 0.000273348
17 *131:22 *140:26 0.000131485
*RES
1 *963:X *140:10 47.3775 
2 *140:10 *140:26 38.5836 
3 *140:26 *964:A 38 
*END

*D_NET *141 0.00971312
*CONN
*I *967:B I *D sky130_fd_sc_hd__and3_1
*I *965:X O *D sky130_fd_sc_hd__a31o_1
*CAP
1 *967:B 0.000105357
2 *965:X 0.000436885
3 *141:22 0.00149543
4 *141:18 0.00179258
5 *141:12 0.000839394
6 *967:B *143:6 6.17437e-06
7 *967:B *146:24 9.9291e-05
8 *141:12 *177:148 6.69637e-06
9 *141:12 *183:87 0.000275692
10 *141:22 *158:18 2.5963e-05
11 *141:22 *193:16 0.000655561
12 *141:22 *203:20 0.000696647
13 *141:22 *203:34 4.51797e-05
14 *1015:B1 *141:12 1.05658e-05
15 *64:10 *141:22 0.00191978
16 *79:28 *141:22 8.33336e-05
17 *85:16 *141:22 0.00053644
18 *112:137 *141:18 6.2403e-05
19 *112:141 *141:18 0.000357547
20 *114:30 *141:22 0.000225025
21 *133:34 *141:12 1.63599e-05
22 *133:49 *141:12 2.08253e-05
*RES
1 *965:X *141:12 44.7943 
2 *141:12 *141:18 35.3857 
3 *141:18 *141:22 49.655 
4 *141:22 *967:B 24.9471 
*END

*D_NET *142 0.0129715
*CONN
*I *967:C I *D sky130_fd_sc_hd__and3_1
*I *972:A2 I *D sky130_fd_sc_hd__a211oi_1
*I *966:Y O *D sky130_fd_sc_hd__nand3_1
*CAP
1 *967:C 0
2 *972:A2 0
3 *966:Y 4.62547e-05
4 *142:50 0.000568575
5 *142:32 0.00157368
6 *142:18 0.00208288
7 *142:16 0.00219591
8 *142:8 0.0011644
9 *142:8 *182:85 0.000137651
10 *142:16 *176:135 2.79858e-05
11 *142:16 *176:141 1.75427e-05
12 *142:16 *191:105 0.00133435
13 *142:16 *209:66 0
14 *142:18 *146:24 0.000361489
15 *142:32 *186:18 0.00035838
16 *142:32 *197:33 0.000282179
17 *142:50 *144:18 0.00019003
18 *142:50 *146:138 1.99071e-05
19 *142:50 *196:89 6.56284e-05
20 *936:C *142:16 0.000690208
21 *1067:RESET_B *142:16 2.55515e-05
22 *20:152 *142:32 0.000204749
23 *20:152 *142:50 0
24 *29:16 *142:16 0
25 *55:10 *142:16 0
26 *83:38 *142:50 2.1819e-05
27 *88:14 *142:8 0.000137651
28 *93:38 *142:50 1.74874e-06
29 *112:56 *142:18 9.56137e-05
30 *112:56 *142:32 0.000581526
31 *112:96 *142:50 8.86468e-05
32 *118:42 *142:16 0.000200136
33 *119:45 *142:16 0.000156901
34 *120:14 *142:32 0.000175903
35 *122:20 *142:50 0
36 *130:26 *142:50 8.0117e-05
37 *139:14 *142:16 8.4047e-05
*RES
1 *966:Y *142:8 39.5743 
2 *142:8 *142:16 40.9136 
3 *142:16 *142:18 13.6196 
4 *142:18 *142:32 46.6854 
5 *142:32 *142:50 39.0314 
6 *142:50 *972:A2 23 
7 *142:18 *967:C 23 
*END

*D_NET *143 0.0104887
*CONN
*I *968:A I *D sky130_fd_sc_hd__buf_1
*I *967:X O *D sky130_fd_sc_hd__and3_1
*CAP
1 *968:A 0
2 *967:X 0
3 *143:14 0.000963328
4 *143:6 0.00404522
5 *143:4 0.00308189
6 *143:6 *146:24 2.79543e-05
7 *143:6 *146:66 0.000178227
8 *143:6 *187:24 5.61255e-06
9 *143:6 *191:86 0.00113232
10 *143:6 *212:80 5.3304e-05
11 *143:14 *212:80 0.000349386
12 *948:A *143:6 0.00020613
13 *967:B *143:6 6.17437e-06
14 *26:8 *143:14 1.75792e-05
15 *35:10 *143:14 0.000351626
16 *93:50 *143:6 4.6379e-05
17 *112:56 *143:6 2.35777e-05
*RES
1 *967:X *143:4 23 
2 *143:4 *143:6 38.7357 
3 *143:6 *143:14 46.7786 
4 *143:14 *968:A 23 
*END

*D_NET *144 0.00811279
*CONN
*I *972:A1 I *D sky130_fd_sc_hd__a211oi_1
*I *969:Y O *D sky130_fd_sc_hd__inv_2
*CAP
1 *972:A1 0
2 *969:Y 0.000603206
3 *144:26 0.000234218
4 *144:18 0.000983474
5 *144:6 0.00135246
6 *144:6 *176:114 0.000339369
7 *144:18 *146:138 0.00033558
8 *144:18 *183:57 5.06294e-05
9 *144:18 *184:74 0.00084199
10 *144:18 *198:33 2.81066e-05
11 *144:18 *208:18 0.000805639
12 *144:26 *972:B1 2.05503e-05
13 *144:26 *146:138 0.00013924
14 *144:26 *186:18 0.000153886
15 *956:A *144:6 2.64616e-05
16 *20:152 *144:26 1.24376e-05
17 *20:173 *144:26 3.9015e-05
18 *49:26 *144:18 4.90702e-05
19 *84:39 *144:6 0.00153075
20 *93:38 *144:18 0
21 *112:52 *144:6 6.37845e-05
22 *134:18 *144:6 0.000312889
23 *142:50 *144:18 0.00019003
*RES
1 *969:Y *144:6 40.2964 
2 *144:6 *144:18 48.9121 
3 *144:18 *144:26 33.8321 
4 *144:26 *972:A1 23 
*END

*D_NET *145 0.00899758
*CONN
*I *971:A I *D sky130_fd_sc_hd__clkbuf_4
*I *970:X O *D sky130_fd_sc_hd__and4_1
*CAP
1 *971:A 0.000348198
2 *970:X 0.000705801
3 *145:10 0.00116867
4 *145:6 0.00152628
5 *971:A *146:10 0.000469853
6 *971:A *194:10 5.42593e-05
7 *145:6 *154:10 0.00114427
8 *145:10 *182:91 0
9 *145:10 *196:133 4.1196e-05
10 *145:10 *198:43 4.15283e-06
11 *145:10 *198:103 6.22114e-05
12 *145:10 *202:26 2.17748e-05
13 *42:12 *145:10 0.000537761
14 *90:20 *971:A 0.000348905
15 *93:20 *145:10 0.00124572
16 *117:29 *971:A 1.05235e-05
17 *126:116 *145:6 5.56279e-05
18 *130:14 *145:10 0.00125238
*RES
1 *970:X *145:6 36.0086 
2 *145:6 *145:10 40.4993 
3 *145:10 *971:A 45.7679 
*END

*D_NET *146 0.0400925
*CONN
*I *999:A I *D sky130_fd_sc_hd__nand2_2
*I *972:B1 I *D sky130_fd_sc_hd__a211oi_1
*I *993:C I *D sky130_fd_sc_hd__and4_1
*I *973:B I *D sky130_fd_sc_hd__or2_1
*I *980:C I *D sky130_fd_sc_hd__and3_1
*I *974:B I *D sky130_fd_sc_hd__nand2_2
*I *982:A4 I *D sky130_fd_sc_hd__a41o_1
*I *984:A I *D sky130_fd_sc_hd__and2_2
*I *1004:A2 I *D sky130_fd_sc_hd__a31o_1
*I *971:X O *D sky130_fd_sc_hd__clkbuf_4
*CAP
1 *999:A 0
2 *972:B1 0.000105966
3 *993:C 0
4 *973:B 0
5 *980:C 0
6 *974:B 1.86516e-05
7 *982:A4 0
8 *984:A 0.000155351
9 *1004:A2 0
10 *971:X 0.000636378
11 *146:148 0.000637556
12 *146:138 0.00116948
13 *146:124 0.000220969
14 *146:116 0.000839302
15 *146:103 0.00108821
16 *146:90 0.00056482
17 *146:80 0.00184003
18 *146:78 0.00109651
19 *146:72 0.000272519
20 *146:70 0.000772129
21 *146:66 0.000973891
22 *146:51 0.000588843
23 *146:38 0.00132773
24 *146:28 0.00198489
25 *146:24 0.00209868
26 *146:12 0.00163575
27 *146:10 0.000636378
28 *972:B1 *186:18 2.21866e-05
29 *972:B1 *186:40 2.82976e-05
30 *974:B *148:10 4.84129e-06
31 *984:A *908:A_N 0.000471505
32 *984:A *196:62 0.000471505
33 *146:10 *165:35 6.07611e-06
34 *146:10 *187:47 0.000375069
35 *146:10 *198:43 0.000116232
36 *146:38 *1004:A3 0.000461256
37 *146:38 *165:29 0.0014344
38 *146:38 *196:52 0.00165854
39 *146:38 *204:26 2.02872e-05
40 *146:51 *908:A_N 9.41704e-05
41 *146:51 *1004:A3 0
42 *146:51 *196:62 0.000142238
43 *146:51 *204:26 3.93196e-05
44 *146:70 *177:20 0.00184969
45 *146:70 *183:145 0.000173233
46 *146:78 *170:8 0.000139357
47 *146:78 *175:50 0.00040801
48 *146:78 *177:20 5.00353e-05
49 *146:78 *194:49 0.000137651
50 *146:80 *175:50 0.000293353
51 *146:90 *982:A3 2.93747e-05
52 *146:90 *991:A 5.31385e-05
53 *146:90 *175:28 0.000252074
54 *146:90 *175:50 0.000498231
55 *146:90 *194:71 0.000410819
56 *146:103 *974:A 0.000102465
57 *146:103 *153:14 1.93562e-05
58 *146:103 *194:71 0.000231654
59 *146:103 *215:32 3.63634e-05
60 *146:116 *1034:A 9.62666e-05
61 *146:116 *162:48 0.000991073
62 *146:116 *176:16 0.00016948
63 *146:116 *176:40 8.48594e-05
64 *146:116 *219:16 8.73233e-05
65 *146:124 *168:16 0.00027044
66 *146:124 *177:16 8.48422e-05
67 *146:138 *184:74 0.000163559
68 *146:138 *186:18 0.000410905
69 *146:148 *993:B 2.47015e-05
70 *146:148 *154:26 1.01436e-05
71 *146:148 *159:24 0.00011185
72 *146:148 *202:24 2.42294e-05
73 *967:B *146:24 9.9291e-05
74 *971:A *146:10 0.000469853
75 *1054:RESET_B *146:148 0.000283513
76 *20:173 *972:B1 2.64958e-05
77 *27:8 *972:B1 1.05441e-05
78 *36:24 *146:148 0.000435522
79 *37:14 *974:B 5.79559e-05
80 *37:14 *146:103 7.53303e-06
81 *46:26 *146:124 8.48422e-05
82 *53:22 *146:70 0.000232443
83 *53:22 *146:78 3.7554e-05
84 *53:22 *146:80 7.83704e-05
85 *53:22 *146:90 1.28726e-05
86 *79:28 *146:24 0.000257007
87 *87:65 *146:66 0.000234019
88 *93:38 *146:28 0.000545491
89 *93:38 *146:38 0.000218476
90 *93:50 *146:66 8.73233e-05
91 *94:8 *146:116 0.0018701
92 *112:18 *146:124 0.000267279
93 *112:56 *146:24 0.000263538
94 *112:96 *972:B1 8.08692e-06
95 *112:96 *146:138 5.43589e-05
96 *112:96 *146:148 6.7705e-05
97 *114:30 *146:24 0.000254917
98 *117:29 *146:10 3.32082e-06
99 *122:20 *972:B1 0
100 *122:20 *146:148 3.09673e-05
101 *126:16 *146:90 5.41288e-05
102 *128:12 *146:70 0.00123535
103 *129:24 *146:148 0.000158859
104 *130:26 *146:148 0.000101144
105 *136:12 *146:66 0.000236241
106 *142:18 *146:24 0.000361489
107 *142:50 *146:138 1.99071e-05
108 *143:6 *146:24 2.79543e-05
109 *143:6 *146:66 0.000178227
110 *144:18 *146:138 0.00033558
111 *144:26 *972:B1 2.05503e-05
112 *144:26 *146:138 0.00013924
*RES
1 *971:X *146:10 48.9371 
2 *146:10 *146:12 15 
3 *146:12 *146:24 43.2957 
4 *146:24 *146:28 21.3386 
5 *146:28 *146:38 27.1564 
6 *146:38 *1004:A2 23 
7 *146:38 *146:51 4.97143 
8 *146:51 *984:A 28.3857 
9 *146:51 *146:66 35.365 
10 *146:66 *146:70 40.4993 
11 *146:70 *146:72 15 
12 *146:72 *146:78 22.3536 
13 *146:78 *146:80 4.37071 
14 *146:80 *146:90 28.9821 
15 *146:90 *982:A4 23 
16 *146:80 *146:103 43.7336 
17 *146:103 *974:B 38.6214 
18 *146:78 *146:116 36.1079 
19 *146:116 *146:124 35.0077 
20 *146:124 *980:C 23 
21 *146:72 *973:B 23 
22 *146:28 *146:138 24.4768 
23 *146:138 *146:148 37.87 
24 *146:148 *993:C 23 
25 *146:138 *972:B1 40.0818 
26 *146:12 *999:A 23 
*END

*D_NET *147 0.00233461
*CONN
*I *975:B I *D sky130_fd_sc_hd__and3_1
*I *973:X O *D sky130_fd_sc_hd__or2_1
*CAP
1 *975:B 0
2 *973:X 0.00105492
3 *147:6 0.00105492
4 *147:6 *149:10 5.40337e-05
5 *147:6 *170:8 3.75103e-05
6 *147:6 *170:18 2.63049e-05
7 *147:6 *194:57 0.000106916
*RES
1 *973:X *147:6 35.5321 
2 *147:6 *975:B 23 
*END

*D_NET *148 0.0238047
*CONN
*I *981:A2 I *D sky130_fd_sc_hd__o221a_1
*I *977:B I *D sky130_fd_sc_hd__xor2_1
*I *975:C I *D sky130_fd_sc_hd__and3_1
*I *974:Y O *D sky130_fd_sc_hd__nand2_2
*CAP
1 *981:A2 0
2 *977:B 0
3 *975:C 0.000114651
4 *974:Y 0.000705224
5 *148:60 0.000124525
6 *148:54 0.00270472
7 *148:52 0.00285797
8 *148:41 0.0013656
9 *148:29 0.0026192
10 *148:10 0.00235124
11 *975:C *170:18 2.18506e-05
12 *148:10 *153:14 7.68979e-05
13 *148:10 *162:48 0
14 *148:10 *164:10 0.000302368
15 *148:10 *184:54 2.24608e-05
16 *148:10 *215:32 0
17 *148:29 *149:16 0.00202258
18 *148:29 *180:99 0.000456447
19 *148:29 *188:22 0
20 *148:41 *1076:CLK 1.53445e-05
21 *148:41 *175:115 0.00010763
22 *148:41 *180:45 0
23 *148:52 *1076:CLK 3.96396e-05
24 *148:52 *171:24 0
25 *148:52 *175:115 8.6438e-05
26 *148:54 *152:26 0.000252946
27 *148:54 *201:76 0.00318264
28 *148:60 *981:B2 1.05441e-05
29 *148:60 *151:24 4.77164e-06
30 *148:60 *152:26 5.79413e-06
31 *974:B *148:10 4.84129e-06
32 *29:12 *148:54 0.000281393
33 *37:14 *148:10 3.135e-05
34 *50:26 *148:29 4.96824e-05
35 *51:18 *148:41 6.32706e-05
36 *62:22 *148:29 1.03597e-05
37 *62:22 *148:41 0.000383017
38 *91:54 *148:41 0.000990217
39 *93:94 *148:41 0.000973668
40 *97:14 *148:10 0.000176544
41 *97:14 *148:29 0.00127225
42 *103:84 *148:10 0
43 *103:102 *975:C 0.000108655
44 *103:102 *148:10 0
45 *103:102 *148:29 0
46 *117:47 *148:41 7.95147e-06
*RES
1 *974:Y *148:10 49.2271 
2 *148:10 *975:C 39.6571 
3 *148:10 *148:29 46.2116 
4 *148:29 *148:41 37.2412 
5 *148:41 *977:B 38 
6 *148:41 *148:52 19.7229 
7 *148:52 *148:54 43.0236 
8 *148:54 *148:60 31.9057 
9 *148:60 *981:A2 23 
*END

*D_NET *149 0.00799927
*CONN
*I *976:A I *D sky130_fd_sc_hd__clkbuf_1
*I *975:X O *D sky130_fd_sc_hd__and3_1
*CAP
1 *976:A 0
2 *975:X 8.07463e-05
3 *149:24 0.000312264
4 *149:16 0.00208147
5 *149:10 0.00184995
6 *149:10 *170:18 0.00019063
7 *149:16 *162:38 0
8 *149:16 *180:99 3.90492e-05
9 *149:16 *188:14 3.41998e-06
10 *149:16 *205:26 0.000125234
11 *149:24 *162:14 4.23189e-05
12 *149:24 *178:44 3.52734e-05
13 *149:24 *205:26 6.04116e-05
14 *149:24 *205:36 0
15 *960:B *149:16 0.000148403
16 *51:18 *149:16 0
17 *93:40 *149:24 0.000476749
18 *103:20 *149:24 0.000476749
19 *147:6 *149:10 5.40337e-05
20 *148:29 *149:16 0.00202258
*RES
1 *975:X *149:10 40.5479 
2 *149:10 *149:16 48.785 
3 *149:16 *149:24 38.3479 
4 *149:24 *976:A 23 
*END

*D_NET *150 0.00274782
*CONN
*I *978:B I *D sky130_fd_sc_hd__nor2_1
*I *977:X O *D sky130_fd_sc_hd__xor2_1
*CAP
1 *978:B 0
2 *977:X 0.000599811
3 *150:8 0.000599811
4 *20:195 *150:8 0.000543653
5 *92:14 *150:8 0.00100454
*RES
1 *977:X *150:8 40.3171 
2 *150:8 *978:B 23 
*END

*D_NET *151 0.0191015
*CONN
*I *981:A1 I *D sky130_fd_sc_hd__o221a_1
*I *979:Y O *D sky130_fd_sc_hd__nand2_1
*CAP
1 *981:A1 0
2 *979:Y 0.000138332
3 *151:24 0.0061595
4 *151:12 0.00629783
5 *151:12 *196:41 2.26406e-05
6 *151:24 *981:B2 9.52777e-06
7 *151:24 *152:26 0.00148847
8 *151:24 *155:51 0
9 *151:24 *171:24 0
10 *151:24 *176:153 0.00012144
11 *151:24 *182:109 0.000110155
12 *151:24 *196:89 0
13 *151:24 *196:108 0.000445881
14 *63:18 *151:12 0.000223222
15 *71:26 *151:24 0.000110155
16 *78:28 *151:24 0.000162626
17 *119:24 *151:12 0.000217706
18 *126:51 *151:24 0.000669551
19 *126:72 *151:24 0.0012825
20 *126:97 *151:24 0.00163723
21 *148:60 *151:24 4.77164e-06
*RES
1 *979:Y *151:12 46.7635 
2 *151:12 *151:24 40.5231 
3 *151:24 *981:A1 38 
*END

*D_NET *152 0.0194353
*CONN
*I *981:B1 I *D sky130_fd_sc_hd__o221a_1
*I *980:X O *D sky130_fd_sc_hd__and3_1
*CAP
1 *981:B1 0
2 *980:X 0.000143368
3 *152:26 0.00621667
4 *152:14 0.00636004
5 *152:14 *195:73 9.6288e-05
6 *152:14 *213:28 8.76403e-05
7 *152:26 *901:A1 5.89766e-06
8 *152:26 *981:B2 1.05441e-05
9 *152:26 *171:24 0.000586958
10 *152:26 *195:53 0.000868137
11 *152:26 *195:63 0.000556305
12 *152:26 *196:108 0.000266992
13 *152:26 *196:133 2.28839e-05
14 *152:26 *197:79 0.000233846
15 *152:26 *199:18 3.9779e-05
16 *152:26 *201:76 0.00020674
17 *1065:RESET_B *152:26 0.000128467
18 *29:12 *152:26 0.000201842
19 *30:6 *152:26 0.000320493
20 *97:8 *152:14 9.41704e-05
21 *106:14 *152:14 2.05503e-05
22 *112:18 *152:14 2.05503e-05
23 *112:130 *152:26 4.77164e-06
24 *116:34 *152:26 0.000279962
25 *129:24 *152:26 0.000915227
26 *148:54 *152:26 0.000252946
27 *148:60 *152:26 5.79413e-06
28 *151:24 *152:26 0.00148847
*RES
1 *980:X *152:14 47.6037 
2 *152:14 *152:26 40.7235 
3 *152:26 *981:B1 38 
*END

*D_NET *153 0.00496203
*CONN
*I *986:B I *D sky130_fd_sc_hd__and3_1
*I *982:X O *D sky130_fd_sc_hd__a41o_1
*CAP
1 *986:B 0
2 *982:X 0.000187709
3 *153:14 0.000905574
4 *153:8 0.00109328
5 *153:8 *982:A1 0.00101336
6 *153:8 *189:73 0.000144494
7 *153:14 *157:8 9.5877e-05
8 *153:14 *184:33 7.62169e-05
9 *153:14 *184:54 0.000113447
10 *153:14 *188:22 0
11 *153:14 *188:28 5.94202e-05
12 *153:14 *196:26 0.000297418
13 *153:14 *215:32 0
14 *922:A *153:14 4.94033e-05
15 *78:10 *153:14 6.77278e-05
16 *86:59 *153:14 0
17 *126:16 *153:8 0.00070452
18 *126:16 *153:14 0
19 *133:14 *153:8 5.73309e-05
20 *133:14 *153:14 0
21 *146:103 *153:14 1.93562e-05
22 *148:10 *153:14 7.68979e-05
*RES
1 *982:X *153:8 49.1029 
2 *153:8 *153:14 29.8729 
3 *153:14 *986:B 23 
*END

*D_NET *154 0.0175812
*CONN
*I *993:D I *D sky130_fd_sc_hd__and4_1
*I *998:B I *D sky130_fd_sc_hd__and2_1
*I *984:B I *D sky130_fd_sc_hd__and2_2
*I *983:X O *D sky130_fd_sc_hd__and4_1
*CAP
1 *993:D 0
2 *998:B 2.35907e-05
3 *984:B 0
4 *983:X 0.00109868
5 *154:52 0.000779428
6 *154:44 0.000956689
7 *154:40 0.00178436
8 *154:34 0.0018966
9 *154:26 0.000304274
10 *154:20 0.000914059
11 *154:10 0.00197437
12 *154:10 *167:8 3.65917e-05
13 *154:10 *194:16 0.000351445
14 *154:10 *195:158 3.59635e-05
15 *154:10 *196:133 1.41129e-05
16 *154:10 *197:87 0.000230872
17 *154:10 *200:64 0.000589795
18 *154:10 *202:51 2.18506e-05
19 *154:10 *203:98 5.3304e-05
20 *154:20 *186:46 0.000195932
21 *154:20 *188:129 0.000753506
22 *154:20 *200:45 0.00010067
23 *154:26 *159:24 6.16531e-05
24 *154:34 *159:24 0.000277139
25 *154:40 *1064:CLK 0.000214016
26 *154:40 *175:80 0.000134767
27 *154:44 *1025:A 5.55615e-05
28 *154:52 *908:B 1.01436e-05
29 *154:52 *1025:A 0.000140803
30 *154:52 *200:18 0.000501222
31 *1055:RESET_B *154:52 2.52012e-05
32 *1077:RESET_B *154:44 0.000222899
33 *80:16 *154:52 0
34 *83:38 *154:40 0.000147172
35 *87:44 *154:34 2.26497e-05
36 *96:37 *154:10 0.00018137
37 *98:6 *154:44 0.000555704
38 *98:6 *154:52 0.000393287
39 *101:10 *154:10 0.000301116
40 *102:22 *154:40 0.000132638
41 *111:14 *154:10 1.24376e-05
42 *118:32 *154:40 0.000180218
43 *122:28 *154:20 0.000183733
44 *123:22 *154:20 0.000140259
45 *123:22 *154:26 6.12496e-06
46 *123:22 *154:34 9.41704e-05
47 *124:10 *154:34 0.000106388
48 *126:116 *154:10 0.000111567
49 *126:116 *154:20 9.84851e-05
50 *145:6 *154:10 0.00114427
51 *146:148 *154:26 1.01436e-05
*RES
1 *983:X *154:10 49.8664 
2 *154:10 *154:20 48.2907 
3 *154:20 *154:26 30.8493 
4 *154:26 *154:34 35.1164 
5 *154:34 *154:40 35.6314 
6 *154:40 *154:44 21.3386 
7 *154:44 *154:52 48.6636 
8 *154:52 *984:B 23 
9 *154:44 *998:B 23.4971 
10 *154:26 *993:D 23 
*END

*D_NET *155 0.0285449
*CONN
*I *989:B I *D sky130_fd_sc_hd__nand2_1
*I *988:B I *D sky130_fd_sc_hd__or2_1
*I *985:A I *D sky130_fd_sc_hd__inv_2
*I *984:X O *D sky130_fd_sc_hd__and2_2
*CAP
1 *989:B 0
2 *988:B 0
3 *985:A 0
4 *984:X 0.000411685
5 *155:84 0.000852058
6 *155:74 0.00293377
7 *155:61 0.000147666
8 *155:51 0.00152958
9 *155:39 0.00417524
10 *155:37 0.00242037
11 *155:22 0.00122706
12 *155:18 0.00320665
13 *155:10 0.000682524
14 *155:10 *908:A_N 2.43944e-05
15 *155:10 *908:B 5.26709e-05
16 *155:10 *196:62 0.000259508
17 *155:18 *161:8 0
18 *155:18 *187:24 0.000137361
19 *155:22 *161:8 0
20 *155:22 *166:65 0
21 *155:37 *180:99 2.68974e-05
22 *155:37 *194:29 0.000392722
23 *155:39 *180:99 5.40241e-05
24 *155:39 *194:29 0.000207284
25 *155:39 *211:8 2.02872e-05
26 *155:51 *197:33 0.000713953
27 *155:51 *197:41 0.000237074
28 *155:61 *199:41 0.000138271
29 *155:61 *200:64 9.38377e-05
30 *155:61 *210:72 0.000137778
31 *155:74 *189:43 9.16743e-05
32 *155:74 *191:69 0.00036843
33 *155:74 *194:29 8.86951e-05
34 *155:84 *1080:CLK 2.64616e-05
35 *155:84 *199:80 6.75144e-05
36 *943:A *155:39 0.000844787
37 *943:A *155:74 0.000373932
38 *1061:D *155:39 0.000278991
39 *1080:RESET_B *155:84 0.000186265
40 *27:24 *155:51 0.000310084
41 *32:14 *155:10 8.29264e-05
42 *32:14 *155:22 0.000160499
43 *46:6 *155:39 0.000802214
44 *46:6 *155:74 0.000301116
45 *62:22 *155:51 2.93791e-05
46 *67:16 *155:51 0.00071158
47 *74:14 *155:84 3.85066e-05
48 *78:28 *155:51 0.000339663
49 *84:60 *155:84 0.000404968
50 *86:39 *155:61 0.000142619
51 *94:10 *155:22 0
52 *100:10 *155:18 0.000203163
53 *100:10 *155:22 0.000438165
54 *110:12 *155:84 7.17917e-05
55 *117:29 *155:84 0.000423825
56 *117:47 *155:51 8.66403e-05
57 *121:14 *155:22 0.00142777
58 *123:14 *155:84 0.000160579
59 *125:14 *155:18 0
60 *125:14 *155:22 0
61 *151:24 *155:51 0
*RES
1 *984:X *155:10 44.1107 
2 *155:10 *155:18 34.5364 
3 *155:18 *155:22 44.3729 
4 *155:22 *985:A 23 
5 *155:18 *155:37 40.1057 
6 *155:37 *155:39 18.2493 
7 *155:39 *155:51 43.8336 
8 *155:51 *155:61 33.3525 
9 *155:61 *988:B 23 
10 *155:39 *155:74 47.2314 
11 *155:74 *155:84 47.6486 
12 *155:84 *989:B 38 
*END

*D_NET *156 0.00598426
*CONN
*I *986:C I *D sky130_fd_sc_hd__and3_1
*I *985:Y O *D sky130_fd_sc_hd__inv_2
*CAP
1 *986:C 0
2 *985:Y 0.000341949
3 *156:14 0.00170081
4 *156:10 0.00204276
5 *156:10 *212:14 0.000110306
6 *156:14 *164:18 0.00156941
7 *156:14 *164:31 8.75114e-05
8 *32:10 *156:14 0.000128749
9 *94:10 *156:10 2.76611e-06
10 *121:14 *156:10 0
*RES
1 *985:Y *156:10 42.6814 
2 *156:10 *156:14 38.8318 
3 *156:14 *986:C 23 
*END

*D_NET *157 0.00410223
*CONN
*I *987:A I *D sky130_fd_sc_hd__clkbuf_1
*I *986:X O *D sky130_fd_sc_hd__and3_1
*CAP
1 *987:A 0.000374837
2 *986:X 0.000548892
3 *157:8 0.000923729
4 *922:A *157:8 0.000985927
5 *37:10 *987:A 0.000624942
6 *40:8 *157:8 0.000141954
7 *40:12 *987:A 7.00811e-05
8 *59:12 *987:A 0.000335993
9 *153:14 *157:8 9.5877e-05
*RES
1 *986:X *157:8 49.1029 
2 *157:8 *987:A 46.9486 
*END

*D_NET *158 0.0120541
*CONN
*I *990:B I *D sky130_fd_sc_hd__and3_1
*I *988:X O *D sky130_fd_sc_hd__or2_1
*CAP
1 *990:B 0
2 *988:X 0.000347908
3 *158:26 0.00112777
4 *158:18 0.00216284
5 *158:14 0.00136661
6 *158:8 0.000679448
7 *158:14 *198:37 0.000390107
8 *158:18 *182:40 0
9 *158:18 *193:16 0.000290705
10 *158:18 *203:34 0.000152081
11 *158:26 *159:10 0.000178235
12 *158:26 *159:18 0.00108675
13 *30:12 *158:8 0.00067334
14 *43:24 *158:18 0.000199646
15 *65:10 *158:26 3.4777e-05
16 *79:28 *158:8 2.12347e-06
17 *85:16 *158:18 0.00139474
18 *103:24 *158:18 0.000344463
19 *103:38 *158:18 0.000847871
20 *112:102 *158:8 0.000666328
21 *139:14 *158:26 8.23679e-05
22 *141:22 *158:18 2.5963e-05
*RES
1 *988:X *158:8 47.6529 
2 *158:8 *158:14 34.4329 
3 *158:14 *158:18 40.4993 
4 *158:18 *158:26 45.6393 
5 *158:26 *990:B 23 
*END

*D_NET *159 0.0185198
*CONN
*I *990:C I *D sky130_fd_sc_hd__and3_1
*I *994:A2 I *D sky130_fd_sc_hd__a211oi_1
*I *989:Y O *D sky130_fd_sc_hd__nand2_1
*CAP
1 *990:C 0
2 *994:A2 0.000103541
3 *989:Y 0.00124295
4 *159:41 0.000181605
5 *159:24 0.00218237
6 *159:18 0.00287132
7 *159:10 0.00221704
8 *159:10 *187:79 0.000779667
9 *159:18 *1012:A 0.000270918
10 *159:18 *185:43 0.0009886
11 *159:18 *185:57 9.8592e-06
12 *159:18 *186:18 0.000175903
13 *159:24 *176:114 0.000225026
14 *159:24 *189:8 0
15 *159:24 *196:10 6.2088e-05
16 *159:24 *196:16 0.000108735
17 *159:24 *200:45 0
18 *159:24 *211:14 9.98725e-05
19 *159:24 *214:96 2.05503e-05
20 *159:41 *1080:CLK 8.603e-05
21 *159:41 *214:62 0.000204133
22 *895:A2 *994:A2 8.43466e-05
23 *990:A *159:41 0.00016635
24 *11:21 *159:24 4.15283e-06
25 *20:104 *159:10 0.000544526
26 *20:104 *159:18 0.000738179
27 *24:12 *159:24 0.00122013
28 *25:12 *159:24 0.000116392
29 *79:14 *159:18 0.000898868
30 *87:32 *994:A2 0.000100061
31 *87:44 *159:24 0.000169854
32 *112:52 *159:24 0.000113013
33 *112:71 *159:24 0.000173118
34 *119:45 *159:41 0.000204885
35 *122:20 *159:24 0
36 *124:10 *159:24 2.16827e-05
37 *129:24 *159:24 0.000294557
38 *131:10 *159:24 0.000123852
39 *146:148 *159:24 0.00011185
40 *154:26 *159:24 6.16531e-05
41 *154:34 *159:24 0.000277139
42 *158:26 *159:10 0.000178235
43 *158:26 *159:18 0.00108675
*RES
1 *989:Y *159:10 41.8914 
2 *159:10 *159:18 40.5614 
3 *159:18 *159:24 40.6 
4 *159:24 *994:A2 40.0507 
5 *159:10 *159:41 34.8471 
6 *159:41 *990:C 23 
*END

*D_NET *160 0.0153461
*CONN
*I *991:A I *D sky130_fd_sc_hd__clkbuf_1
*I *990:X O *D sky130_fd_sc_hd__and3_1
*CAP
1 *991:A 1.31062e-05
2 *990:X 0
3 *160:18 0.00403776
4 *160:6 0.00402465
5 *991:A *194:71 1.14452e-05
6 *160:18 *164:37 3.46186e-05
7 *160:18 *168:16 0.000625623
8 *160:18 *173:30 7.94924e-05
9 *160:18 *173:72 0.00101221
10 *160:18 *184:54 0.000902017
11 *160:18 *192:41 0.000227676
12 *160:18 *204:16 0.0011169
13 *1078:RESET_B *160:18 0.00019074
14 *11:21 *160:18 0.000124567
15 *36:12 *160:18 7.58081e-05
16 *38:24 *160:18 1.6986e-05
17 *53:22 *991:A 1.83142e-05
18 *86:59 *160:18 0.000104388
19 *112:151 *160:18 0.00014853
20 *112:164 *160:18 0.000142121
21 *119:37 *160:18 0.000108664
22 *119:45 *160:18 0.000834803
23 *129:24 *160:18 0.000337741
24 *139:14 *160:18 0.00101001
25 *140:10 *160:18 9.48043e-05
26 *146:90 *991:A 5.31385e-05
*RES
1 *990:X *160:6 38 
2 *160:6 *160:18 49.9335 
3 *160:18 *991:A 38.6732 
*END

*D_NET *161 0.0150504
*CONN
*I *994:A1 I *D sky130_fd_sc_hd__a211oi_1
*I *992:Y O *D sky130_fd_sc_hd__inv_2
*CAP
1 *994:A1 0
2 *992:Y 0
3 *161:20 0.00233441
4 *161:8 0.00377392
5 *161:6 0.00143951
6 *161:8 *166:65 1.01436e-05
7 *161:8 *200:18 0.00327903
8 *161:20 *994:B1 0.00027939
9 *161:20 *183:28 4.72639e-05
10 *161:20 *200:35 0.000366493
11 *161:20 *210:72 0.000563022
12 *161:20 *215:10 0.000100139
13 *1075:RESET_B *161:20 4.57385e-05
14 *20:216 *161:8 0.000584653
15 *80:16 *161:8 0
16 *87:32 *161:20 2.67247e-05
17 *87:44 *161:20 6.80332e-05
18 *92:8 *161:20 1.21972e-05
19 *98:12 *161:8 0
20 *100:10 *161:8 0
21 *101:18 *161:20 0.000591018
22 *103:209 *161:20 7.89883e-05
23 *116:34 *161:20 0.000141677
24 *117:59 *161:20 0
25 *122:28 *161:20 4.36457e-05
26 *125:14 *161:8 0.00126443
27 *155:18 *161:8 0
28 *155:22 *161:8 0
*RES
1 *992:Y *161:6 38 
2 *161:6 *161:8 44.6911 
3 *161:8 *161:20 41.9946 
4 *161:20 *994:A1 23 
*END

*D_NET *162 0.0221114
*CONN
*I *994:B1 I *D sky130_fd_sc_hd__a211oi_1
*I *996:B I *D sky130_fd_sc_hd__and2_1
*I *995:B I *D sky130_fd_sc_hd__nor2_1
*I *993:X O *D sky130_fd_sc_hd__and4_1
*CAP
1 *994:B1 0.000325022
2 *996:B 0
3 *995:B 0.00033623
4 *993:X 0.000112548
5 *162:54 0.000998608
6 *162:48 0.00118867
7 *162:38 0.00158612
8 *162:26 0.00178582
9 *162:14 0.00173283
10 *162:8 0.00144442
11 *994:B1 *183:24 3.04333e-05
12 *994:B1 *188:121 7.86958e-05
13 *994:B1 *189:18 2.00428e-05
14 *995:B *995:A 0.00135375
15 *162:8 *186:46 2.02872e-05
16 *162:14 *178:44 0.000147409
17 *162:14 *183:28 0
18 *162:14 *187:14 0.000409476
19 *162:14 *188:121 6.10809e-05
20 *162:14 *191:86 6.15195e-05
21 *162:14 *205:36 0
22 *162:26 *176:97 0.000129751
23 *162:26 *201:34 0.000614956
24 *162:26 *201:40 0.000189278
25 *162:26 *211:31 9.5877e-05
26 *162:26 *211:35 5.61255e-06
27 *162:38 *178:33 1.23773e-05
28 *162:38 *178:44 0.000100987
29 *162:38 *195:63 1.24585e-05
30 *162:38 *195:73 1.17256e-05
31 *162:38 *201:50 4.2573e-05
32 *162:38 *205:26 4.57887e-05
33 *162:48 *164:10 0
34 *162:48 *176:16 0.000343689
35 *162:48 *176:40 0.000645056
36 *162:48 *201:50 0.000207012
37 *162:54 *183:145 0
38 *162:54 *222:12 5.93705e-05
39 *898:B1 *162:14 0.000135092
40 *1057:RESET_B *162:38 0.000138662
41 *20:32 *995:B 0.000837225
42 *20:173 *994:B1 0.000117257
43 *36:24 *162:14 9.23705e-06
44 *37:10 *162:54 0
45 *40:12 *162:54 0.000254563
46 *45:10 *162:38 2.23265e-05
47 *46:10 *162:26 6.74097e-05
48 *46:26 *162:38 5.3304e-05
49 *46:26 *162:48 9.77405e-05
50 *51:24 *162:14 1.01436e-05
51 *51:24 *162:38 4.08379e-06
52 *56:10 *162:26 0.000175903
53 *57:6 *995:B 0.00028632
54 *84:8 *995:B 0.000322582
55 *84:12 *162:54 0.00100101
56 *87:32 *994:B1 2.31765e-05
57 *87:44 *162:14 0.000784523
58 *89:20 *162:38 0.000465975
59 *97:8 *162:48 2.02872e-05
60 *103:102 *162:38 0.000154632
61 *103:102 *162:48 2.73376e-05
62 *112:39 *162:26 0.00022104
63 *118:14 *162:14 3.27534e-05
64 *122:28 *994:B1 3.39192e-05
65 *122:28 *162:8 0.000265526
66 *122:28 *162:14 3.39102e-05
67 *123:22 *162:8 0.000167759
68 *124:10 *162:26 0.000290382
69 *131:28 *995:B 0.000326398
70 *132:8 *162:8 5.11621e-05
71 *132:14 *162:14 0.0001575
72 *146:116 *162:48 0.000991073
73 *148:10 *162:48 0
74 *149:16 *162:38 0
75 *149:24 *162:14 4.23189e-05
76 *161:20 *994:B1 0.00027939
*RES
1 *993:X *162:8 41.48 
2 *162:8 *162:14 35.8593 
3 *162:14 *162:26 45.66 
4 *162:26 *162:38 49.6164 
5 *162:38 *162:48 45.515 
6 *162:48 *162:54 44.2307 
7 *162:54 *995:B 41.7464 
8 *162:38 *996:B 23 
9 *162:8 *994:B1 44.5457 
*END

*D_NET *163 0.00140837
*CONN
*I *997:B I *D sky130_fd_sc_hd__nor3_1
*I *995:Y O *D sky130_fd_sc_hd__nor2_1
*CAP
1 *997:B 0.000559448
2 *995:Y 8.49903e-05
3 *163:8 0.000644439
4 *163:8 *221:12 6.47558e-05
5 *997:A *997:B 4.98295e-05
6 *35:8 *997:B 4.91172e-06
*RES
1 *995:Y *163:8 39.9057 
2 *163:8 *997:B 47.6736 
*END

*D_NET *164 0.0160649
*CONN
*I *1000:A2 I *D sky130_fd_sc_hd__o211a_1
*I *997:C I *D sky130_fd_sc_hd__nor3_1
*I *996:X O *D sky130_fd_sc_hd__and2_1
*CAP
1 *1000:A2 0
2 *997:C 0
3 *996:X 0.000387079
4 *164:37 0.000172381
5 *164:31 0.00285777
6 *164:18 0.000746513
7 *164:12 0.0034319
8 *164:10 0.000387079
9 *164:31 *172:14 0.00132925
10 *164:37 *202:34 0.000164975
11 *918:A *164:18 0.00127891
12 *918:A *164:31 0.00014861
13 *922:A *164:18 0.00013223
14 *1062:RESET_B *164:18 0.000683656
15 *20:8 *164:31 0.000178227
16 *32:10 *164:18 1.21972e-05
17 *35:10 *164:18 0.000607956
18 *65:10 *164:37 7.90338e-05
19 *97:8 *164:10 0.000186606
20 *103:66 *164:31 2.18286e-05
21 *103:68 *164:31 6.70361e-05
22 *103:74 *164:31 0.000836283
23 *103:76 *164:31 9.77405e-05
24 *103:102 *164:10 0
25 *112:137 *164:31 0.000113498
26 *112:151 *164:37 1.02029e-05
27 *112:164 *164:37 0.000105122
28 *131:28 *164:18 3.48843e-05
29 *148:10 *164:10 0.000302368
30 *156:14 *164:18 0.00156941
31 *156:14 *164:31 8.75114e-05
32 *160:18 *164:37 3.46186e-05
33 *162:48 *164:10 0
*RES
1 *996:X *164:10 44.4214 
2 *164:10 *164:12 15 
3 *164:12 *164:18 42.0736 
4 *164:18 *997:C 38 
5 *164:12 *164:31 36.9957 
6 *164:31 *164:37 34.0186 
7 *164:37 *1000:A2 23 
*END

*D_NET *165 0.0172227
*CONN
*I *999:B I *D sky130_fd_sc_hd__nand2_2
*I *1004:A3 I *D sky130_fd_sc_hd__a31o_1
*I *998:X O *D sky130_fd_sc_hd__and2_1
*CAP
1 *999:B 0
2 *1004:A3 0.000222161
3 *998:X 0.00070662
4 *165:35 9.04607e-05
5 *165:29 0.00164774
6 *165:12 0.00219292
7 *165:8 0.0011201
8 *1004:A3 *203:54 0.000221715
9 *1004:A3 *204:26 0.000170708
10 *165:8 *907:D 1.16872e-05
11 *165:8 *191:94 4.56101e-05
12 *165:8 *197:55 5.3304e-05
13 *165:12 *180:10 8.28736e-05
14 *165:12 *180:21 0.000399511
15 *165:12 *180:32 0.000236676
16 *165:12 *180:43 0.000132285
17 *165:12 *191:94 0.000954413
18 *165:29 *191:22 2.02872e-05
19 *165:29 *203:54 0.00219358
20 *165:29 *203:90 0.00022034
21 *165:35 *187:47 7.91206e-05
22 *165:35 *198:43 0.000249909
23 *924:C *165:29 0.000400582
24 *930:A *165:29 0.000116554
25 *962:B *165:29 2.30804e-05
26 *1053:RESET_B *165:12 6.30352e-05
27 *1077:RESET_B *165:8 3.40414e-05
28 *48:20 *165:12 2.85019e-05
29 *93:30 *165:29 0.00021023
30 *93:38 *165:29 0.000847401
31 *98:6 *165:8 0.000567234
32 *111:8 *165:29 0.00157939
33 *137:31 *165:29 0.000178517
34 *137:33 *165:29 0.00022034
35 *146:10 *165:35 6.07611e-06
36 *146:38 *1004:A3 0.000461256
37 *146:38 *165:29 0.0014344
38 *146:51 *1004:A3 0
*RES
1 *998:X *165:8 48.15 
2 *165:8 *165:12 28.1743 
3 *165:12 *1004:A3 29.0279 
4 *165:12 *165:29 49.3829 
5 *165:29 *165:35 33.3143 
6 *165:35 *999:B 23 
*END

*D_NET *166 0.0259541
*CONN
*I *1008:A2_N I *D sky130_fd_sc_hd__a2bb2o_1
*I *1000:B1 I *D sky130_fd_sc_hd__o211a_1
*I *1005:C I *D sky130_fd_sc_hd__or3_1
*I *224:DIODE I *D sky130_fd_sc_hd__diode_2
*I *1002:B I *D sky130_fd_sc_hd__xnor2_1
*I *999:Y O *D sky130_fd_sc_hd__nand2_2
*CAP
1 *1008:A2_N 0.000154369
2 *1000:B1 3.11747e-05
3 *1005:C 0
4 *224:DIODE 0.000116759
5 *1002:B 0.00034466
6 *999:Y 0
7 *166:69 0.000243675
8 *166:65 0.00280796
9 *166:53 0.00441195
10 *166:29 0.00226388
11 *166:14 0.00140233
12 *166:8 0.00137526
13 *166:6 0.000665013
14 *1002:B *1043:A 0.000324531
15 *1002:B *168:8 0.000665021
16 *1002:B *177:123 0.000328877
17 *1002:B *181:28 7.48516e-05
18 *1008:A2_N *1008:A1_N 6.41207e-05
19 *166:8 *187:47 0.000832537
20 *166:8 *187:49 0.000186384
21 *166:8 *187:55 0.000232591
22 *166:8 *204:62 3.93904e-06
23 *166:8 *206:20 0.000150872
24 *166:8 *206:22 0.000242345
25 *166:8 *206:28 0.000159071
26 *166:8 *206:65 0.00110609
27 *166:14 *168:8 0.00015244
28 *166:14 *177:123 0.000177599
29 *166:14 *204:62 0.000239234
30 *166:14 *206:28 0.000831974
31 *166:29 *175:153 1.14876e-05
32 *166:53 *961:A 0.00098634
33 *166:53 *175:137 0.000649395
34 *166:53 *175:153 0
35 *166:53 *203:12 9.36964e-05
36 *166:65 *195:73 0.000286845
37 *166:65 *199:18 0.000377303
38 *166:65 *200:18 1.37246e-05
39 *166:65 *204:43 6.2481e-05
40 *166:65 *213:28 0.000586686
41 *166:69 *167:32 8.46215e-05
42 *921:C *1002:B 0.00014384
43 *1005:B *166:69 7.87147e-05
44 *1078:RESET_B *166:65 0.000457443
45 *11:21 *166:65 7.01969e-05
46 *37:14 *166:53 0.000282896
47 *62:14 *166:65 7.70232e-05
48 *63:18 *166:65 7.0811e-05
49 *76:14 *166:65 0.000142722
50 *91:12 *1008:A2_N 0.000428661
51 *91:12 *166:8 0.000188682
52 *94:10 *166:65 0
53 *94:20 *166:65 8.62876e-05
54 *106:14 *166:65 0.000211139
55 *112:18 *166:65 0.000233678
56 *112:151 *1000:B1 5.12055e-06
57 *112:151 *166:29 2.62931e-05
58 *112:151 *166:53 5.47927e-05
59 *117:8 *1008:A2_N 0.000344596
60 *138:6 *166:53 0.000298974
61 *155:22 *166:65 0
62 *161:8 *166:65 1.01436e-05
*RES
1 *999:Y *166:6 38 
2 *166:6 *166:8 22.6821 
3 *166:8 *166:14 14.645 
4 *166:14 *1002:B 48.875 
5 *166:14 *166:29 22.2914 
6 *166:29 *166:53 48.9507 
7 *166:53 *166:65 47.7579 
8 *166:65 *166:69 3.02429 
9 *166:69 *224:DIODE 24.5743 
10 *166:69 *1005:C 23 
11 *166:29 *1000:B1 23.8493 
12 *166:8 *1008:A2_N 42.9093 
*END

*D_NET *167 0.03017
*CONN
*I *1008:A1_N I *D sky130_fd_sc_hd__a2bb2o_1
*I *1002:A I *D sky130_fd_sc_hd__xnor2_1
*I *1005:A I *D sky130_fd_sc_hd__or3_1
*I *1001:Y O *D sky130_fd_sc_hd__inv_2
*CAP
1 *1008:A1_N 0.000355705
2 *1002:A 0
3 *1005:A 0
4 *1001:Y 0.000180354
5 *167:47 0.000732136
6 *167:43 0.00223706
7 *167:32 0.00361464
8 *167:20 0.00476386
9 *167:18 0.00196702
10 *167:8 0.00214737
11 *167:18 *182:17 0.000163613
12 *167:18 *182:28 0.00037258
13 *167:18 *182:72 0.00034235
14 *167:18 *185:23 0.000367014
15 *167:18 *189:61 0.000165567
16 *167:18 *191:33 0.000433032
17 *167:18 *191:41 0.000506363
18 *167:18 *205:12 4.51815e-05
19 *167:18 *205:55 0.000763534
20 *167:18 *214:70 0.000117582
21 *167:32 *170:8 0.000557873
22 *167:32 *194:49 0.000263417
23 *167:32 *209:44 1.10304e-05
24 *167:32 *212:25 1.22906e-05
25 *167:43 *187:59 8.77939e-05
26 *167:43 *207:18 4.39814e-05
27 *167:43 *209:44 0.000125628
28 *167:43 *213:14 0
29 *167:47 *168:8 0.000105966
30 *167:47 *177:117 0.000681774
31 *167:47 *187:59 0.0011443
32 *167:47 *206:28 1.22906e-05
33 *167:47 *207:18 3.3746e-05
34 *917:B *167:32 0.000573652
35 *1005:B *167:32 7.0359e-05
36 *1008:A2_N *1008:A1_N 6.41207e-05
37 *35:10 *167:32 0.000291612
38 *36:24 *167:18 0.000221856
39 *53:22 *167:32 0.0029878
40 *70:16 *167:32 3.36345e-05
41 *70:16 *167:43 9.21116e-05
42 *76:14 *167:32 0
43 *86:51 *167:18 2.79999e-05
44 *91:12 *1008:A1_N 2.46906e-05
45 *91:27 *167:43 0
46 *96:37 *167:8 5.3304e-05
47 *103:66 *167:32 0.000395045
48 *105:16 *167:32 0.000925973
49 *108:18 *167:47 0.000241606
50 *117:8 *1008:A1_N 0.000116564
51 *131:22 *167:32 0.000373191
52 *135:16 *167:32 3.75474e-05
53 *135:16 *167:43 7.5095e-06
54 *137:63 *167:18 0.00112736
55 *140:26 *167:43 2.78404e-05
56 *154:10 *167:8 3.65917e-05
57 *166:69 *167:32 8.46215e-05
*RES
1 *1001:Y *167:8 40.0507 
2 *167:8 *167:18 47.5096 
3 *167:18 *167:20 8 
4 *167:20 *167:32 43.4884 
5 *167:32 *1005:A 23 
6 *167:20 *167:43 12.0524 
7 *167:43 *167:47 36.6257 
8 *167:47 *1002:A 23 
9 *167:43 *1008:A1_N 43.9036 
*END

*D_NET *168 0.0218243
*CONN
*I *1003:B I *D sky130_fd_sc_hd__nor2_1
*I *1002:Y O *D sky130_fd_sc_hd__xnor2_1
*CAP
1 *1003:B 0
2 *1002:Y 0.000438551
3 *168:30 0.000859861
4 *168:26 0.00101954
5 *168:16 0.0035204
6 *168:8 0.00379928
7 *168:8 *206:28 0.000385585
8 *168:16 *173:72 0.00015884
9 *168:16 *176:97 0.00017801
10 *168:16 *184:54 0.000194561
11 *168:16 *201:40 0.00100805
12 *168:16 *204:43 0.000284221
13 *168:16 *205:55 0.000646465
14 *168:16 *214:31 0.000332162
15 *168:26 *183:139 0.000135037
16 *168:30 *175:67 0.00121049
17 *168:30 *211:35 0.00248304
18 *1002:B *168:8 0.000665021
19 *1003:A *168:30 0.000380188
20 *1056:RESET_B *168:26 0.000137525
21 *1078:RESET_B *168:16 0.00119912
22 *36:12 *168:16 1.92442e-05
23 *45:10 *168:16 4.4955e-05
24 *45:10 *168:26 0.000207768
25 *50:12 *168:16 0.000131325
26 *51:24 *168:26 0.000209925
27 *56:10 *168:30 0.000114896
28 *62:14 *168:30 8.95812e-05
29 *74:14 *168:16 0.000294852
30 *108:18 *168:8 0
31 *112:18 *168:16 0.000235876
32 *137:20 *168:16 0.00028551
33 *146:124 *168:16 0.00027044
34 *160:18 *168:16 0.000625623
35 *166:14 *168:8 0.00015244
36 *167:47 *168:8 0.000105966
*RES
1 *1002:Y *168:8 49.9418 
2 *168:8 *168:16 43.0523 
3 *168:16 *168:26 49.5364 
4 *168:26 *168:30 28.275 
5 *168:30 *1003:B 23 
*END

*D_NET *169 0.0151489
*CONN
*I *1006:B I *D sky130_fd_sc_hd__and3_1
*I *1004:X O *D sky130_fd_sc_hd__a31o_1
*CAP
1 *1006:B 7.36403e-05
2 *1004:X 0.00185243
3 *169:14 0.00205525
4 *169:8 0.00198161
5 *169:6 0.00185243
6 *169:6 *201:34 0.00026382
7 *169:6 *203:54 0.000736731
8 *169:6 *204:26 0.000385463
9 *169:14 *940:A 5.95625e-06
10 *169:14 *170:18 6.3859e-05
11 *169:14 *181:52 0.00079903
12 *169:14 *184:74 0.00141293
13 *169:14 *185:66 0.000540289
14 *169:14 *186:18 0.00116219
15 *169:14 *186:29 2.71781e-05
16 *169:14 *197:33 0
17 *169:14 *208:18 4.16815e-05
18 *169:14 *208:78 0.000856303
19 *169:14 *214:39 8.62876e-05
20 *20:129 *169:6 9.64943e-05
21 *103:113 *169:14 0.000757292
22 *109:6 *1006:B 9.79925e-05
*RES
1 *1004:X *169:6 47.4429 
2 *169:6 *169:8 15 
3 *169:8 *169:14 48.8029 
4 *169:14 *1006:B 39.0979 
*END

*D_NET *170 0.0118747
*CONN
*I *1006:C I *D sky130_fd_sc_hd__and3_1
*I *1005:X O *D sky130_fd_sc_hd__or3_1
*CAP
1 *1006:C 5.62112e-05
2 *1005:X 0.0017913
3 *170:18 0.00141997
4 *170:8 0.00315507
5 *1006:C *195:104 3.30808e-05
6 *170:8 *194:49 0.00014478
7 *170:8 *194:57 0.000554156
8 *170:18 *186:29 0.00131625
9 *170:18 *207:12 2.94459e-05
10 *170:18 *208:78 0.000431985
11 *170:18 *214:39 0.000218081
12 *975:C *170:18 2.18506e-05
13 *1057:RESET_B *170:18 0.000677797
14 *103:102 *170:18 0.000277167
15 *103:113 *170:18 0.000732001
16 *146:78 *170:8 0.000139357
17 *147:6 *170:8 3.75103e-05
18 *147:6 *170:18 2.63049e-05
19 *149:10 *170:18 0.00019063
20 *167:32 *170:8 0.000557873
21 *169:14 *170:18 6.3859e-05
*RES
1 *1005:X *170:8 46.8629 
2 *170:8 *170:18 48.7643 
3 *170:18 *1006:C 38.7043 
*END

*D_NET *171 0.018479
*CONN
*I *1007:A I *D sky130_fd_sc_hd__buf_1
*I *1006:X O *D sky130_fd_sc_hd__and3_1
*CAP
1 *1007:A 0
2 *1006:X 5.32968e-05
3 *171:24 0.00639356
4 *171:12 0.00644686
5 *171:12 *195:73 7.16531e-06
6 *171:24 *901:A1 8.78319e-07
7 *171:24 *977:A 0.000117898
8 *171:24 *1076:CLK 6.10551e-06
9 *171:24 *175:115 0.000113661
10 *171:24 *184:88 0.000131406
11 *171:24 *195:28 0.000174752
12 *171:24 *196:89 0.00100522
13 *171:24 *199:18 0.00177882
14 *171:24 *200:35 0
15 *1065:RESET_B *171:24 0
16 *20:18 *171:12 2.26406e-05
17 *27:24 *171:24 0.00112149
18 *38:12 *171:24 2.75168e-05
19 *63:18 *171:12 9.31402e-05
20 *71:26 *171:24 0.000136959
21 *119:24 *171:12 8.66403e-05
22 *129:24 *171:24 0.000174059
23 *148:52 *171:24 0
24 *151:24 *171:24 0
25 *152:26 *171:24 0.000586958
*RES
1 *1006:X *171:12 46.5059 
2 *171:12 *171:24 41.2959 
3 *171:24 *1007:A 38 
*END

*D_NET *172 0.00817946
*CONN
*I *1009:C1 I *D sky130_fd_sc_hd__o211a_1
*I *1008:X O *D sky130_fd_sc_hd__a2bb2o_1
*CAP
1 *1009:C1 0
2 *1008:X 0.00033631
3 *172:14 0.000913451
4 *172:8 0.00124976
5 *172:8 *207:18 8.97648e-05
6 *172:14 *1009:A2 4.78497e-05
7 *172:14 *177:117 5.3304e-05
8 *172:14 *177:123 0.00021677
9 *172:14 *204:58 0.0016994
10 *1009:B1 *172:14 5.90675e-06
11 *1080:RESET_B *172:8 1.0092e-05
12 *39:6 *172:14 8.54716e-05
13 *68:8 *172:14 0.000558459
14 *108:18 *172:8 0.000660301
15 *112:137 *172:14 4.96303e-05
16 *112:141 *172:14 1.10658e-05
17 *117:16 *172:8 0.000786644
18 *117:29 *172:8 7.60343e-05
19 *164:31 *172:14 0.00132925
*RES
1 *1008:X *172:8 49.7657 
2 *172:8 *172:14 41.8457 
3 *172:14 *1009:C1 23 
*END

*D_NET *173 0.0289718
*CONN
*I *1015:A2 I *D sky130_fd_sc_hd__a21oi_1
*I *1011:B I *D sky130_fd_sc_hd__nor2_1
*I *1014:A2 I *D sky130_fd_sc_hd__a21boi_1
*I *1017:A2 I *D sky130_fd_sc_hd__a21oi_1
*I *1010:Y O *D sky130_fd_sc_hd__nor2_2
*CAP
1 *1015:A2 6.11565e-05
2 *1011:B 0
3 *1014:A2 5.19087e-05
4 *1017:A2 0
5 *1010:Y 0.000521204
6 *173:90 0.000687722
7 *173:72 0.00663788
8 *173:60 0.00654929
9 *173:30 0.00141279
10 *173:18 0.00281121
11 *173:12 0.00188448
12 *173:10 0.000521204
13 *1014:A2 *184:33 2.12347e-06
14 *1014:A2 *184:54 7.71219e-06
15 *1015:A2 *177:148 4.54443e-05
16 *1015:A2 *220:31 1.10658e-05
17 *173:10 *1010:B 0.000269775
18 *173:10 *189:73 0.000481937
19 *173:10 *197:20 1.59019e-05
20 *173:18 *184:33 2.53282e-05
21 *173:18 *196:26 1.96195e-05
22 *173:30 *184:10 0.00020215
23 *173:30 *204:16 3.72975e-05
24 *173:60 *175:14 5.3304e-05
25 *173:60 *175:137 9.77405e-05
26 *173:60 *188:63 1.5725e-05
27 *173:60 *188:71 0.000123686
28 *173:60 *193:16 0.000153564
29 *173:72 *175:137 5.67427e-05
30 *173:72 *217:16 0.00012381
31 *173:90 *1042:A 0
32 *173:90 *199:80 7.13401e-05
33 *173:90 *210:22 3.23058e-05
34 *173:90 *217:8 2.46906e-05
35 *173:90 *217:16 0.000126122
36 *949:B *173:60 9.2467e-06
37 *1074:RESET_B *173:72 0.000415271
38 *1079:RESET_B *173:18 0.000517453
39 *26:24 *173:30 0.000354814
40 *38:24 *173:30 1.29418e-05
41 *50:12 *173:72 0.000148958
42 *64:10 *173:60 8.30566e-06
43 *74:14 *173:72 0
44 *77:16 *1015:A2 2.31687e-05
45 *77:16 *173:60 0.0002349
46 *78:28 *173:30 0.000191228
47 *86:51 *173:72 2.85388e-05
48 *86:59 *173:30 0.000443538
49 *86:59 *173:72 6.5889e-05
50 *86:93 *173:90 0.000100069
51 *87:69 *173:30 0.000199799
52 *93:126 *173:72 4.11349e-05
53 *94:50 *173:10 0
54 *95:14 *173:10 8.12305e-05
55 *95:21 *173:10 0.000200431
56 *103:130 *173:10 1.83344e-05
57 *109:12 *1014:A2 9.83566e-06
58 *109:12 *173:18 2.29244e-05
59 *111:14 *173:90 0.000795677
60 *117:39 *173:72 0.00012381
61 *126:47 *173:10 0
62 *126:47 *173:18 0.000175518
63 *126:47 *173:60 6.06279e-05
64 *129:10 *173:60 0.000153564
65 *133:22 *1015:A2 7.61854e-05
66 *133:22 *173:60 2.5149e-05
67 *138:14 *173:72 4.64674e-05
68 *160:18 *173:30 7.94924e-05
69 *160:18 *173:72 0.00101221
70 *168:16 *173:72 0.00015884
*RES
1 *1010:Y *173:10 49.5171 
2 *173:10 *173:12 15 
3 *173:12 *173:18 32.5968 
4 *173:18 *173:30 38.117 
5 *173:30 *1017:A2 23 
6 *173:18 *1014:A2 38.6732 
7 *173:12 *173:60 40.7093 
8 *173:60 *173:72 45.8167 
9 *173:72 *173:90 47.0593 
10 *173:90 *1011:B 23 
11 *173:60 *1015:A2 25.0714 
*END

*D_NET *174 0.0024437
*CONN
*I *1013:A I *D sky130_fd_sc_hd__buf_1
*I *1012:X O *D sky130_fd_sc_hd__or3_1
*CAP
1 *1013:A 0.000275857
2 *1012:X 0.000204292
3 *174:8 0.000480149
4 *1013:A *190:46 0.000410794
5 *1013:A *208:8 4.49877e-05
6 *174:8 *196:16 0.000168813
7 *174:8 *211:14 0.000166506
8 *20:58 *1013:A 0.000692299
*RES
1 *1012:X *174:8 43.075 
2 *174:8 *1013:A 46.7207 
*END

*D_NET *175 0.0435634
*CONN
*I *1021:A I *D sky130_fd_sc_hd__inv_2
*I *1020:A I *D sky130_fd_sc_hd__inv_2
*I *1026:A I *D sky130_fd_sc_hd__inv_2
*I *1022:A I *D sky130_fd_sc_hd__inv_2
*I *1019:A I *D sky130_fd_sc_hd__inv_2
*I *1025:A I *D sky130_fd_sc_hd__inv_2
*I *1027:A I *D sky130_fd_sc_hd__inv_2
*I *1023:A I *D sky130_fd_sc_hd__inv_2
*I *1024:A I *D sky130_fd_sc_hd__inv_2
*I *1028:A I *D sky130_fd_sc_hd__inv_2
*I *1018:X O *D sky130_fd_sc_hd__buf_4
*CAP
1 *1021:A 0
2 *1020:A 2.72065e-05
3 *1026:A 6.30282e-05
4 *1022:A 2.93058e-05
5 *1019:A 0
6 *1025:A 0.00114002
7 *1027:A 0
8 *1023:A 0.000458076
9 *1024:A 1.27392e-05
10 *1028:A 0
11 *1018:X 0
12 *175:159 9.02346e-05
13 *175:157 0.000776822
14 *175:153 0.00119673
15 *175:137 0.00105623
16 *175:115 0.000465227
17 *175:103 0.0011121
18 *175:80 0.00297658
19 *175:67 0.000602521
20 *175:63 0.00211282
21 *175:50 0.00169514
22 *175:28 0.00103721
23 *175:16 0.0019957
24 *175:14 0.00151852
25 *175:4 0.00215484
26 *1024:A *222:8 7.93848e-06
27 *175:14 *1018:A 9.41704e-05
28 *175:14 *184:16 0.000196877
29 *175:14 *184:33 0.00121566
30 *175:14 *204:8 0.000150637
31 *175:14 *215:40 0.00129498
32 *175:14 *220:24 0.000186038
33 *175:28 *995:A 0.00128025
34 *175:28 *184:10 1.49126e-05
35 *175:28 *184:16 5.58873e-06
36 *175:28 *221:22 0.000206687
37 *175:50 *177:20 0.000689221
38 *175:63 *183:139 5.3304e-05
39 *175:63 *183:145 3.46013e-05
40 *175:80 *176:71 0
41 *175:80 *177:35 0
42 *175:80 *187:20 0.000754704
43 *175:80 *196:62 0.000134374
44 *175:80 *203:75 9.82521e-05
45 *175:103 *180:49 0.000181125
46 *175:103 *215:14 6.32716e-05
47 *175:115 *977:A 2.31116e-05
48 *175:115 *208:65 0
49 *175:137 *193:16 9.01946e-05
50 *175:137 *203:12 0.000181801
51 *175:157 *176:46 0.000453646
52 *175:157 *202:26 5.3858e-05
53 *175:157 *218:16 0
54 *1062:RESET_B *175:28 0
55 *1065:RESET_B *175:103 4.65949e-05
56 *1065:RESET_B *175:115 0.000483489
57 *1075:D *1022:A 5.3304e-05
58 *1075:D *175:103 0.000438682
59 *1076:RESET_B *175:115 4.88664e-05
60 *1077:RESET_B *1025:A 0.000359949
61 *1077:RESET_B *175:103 0.000211266
62 *20:18 *175:14 0.000475679
63 *20:187 *175:115 2.22269e-05
64 *22:18 *175:63 0
65 *22:18 *175:80 0.000170107
66 *26:24 *175:14 0.00192791
67 *34:10 *175:115 1.02387e-05
68 *37:10 *175:63 0.000159904
69 *45:10 *175:14 7.55045e-05
70 *48:14 *175:115 0.000358816
71 *48:20 *175:103 0.000106092
72 *49:8 *1020:A 7.61229e-06
73 *50:12 *175:157 2.26406e-05
74 *51:8 *1022:A 3.7122e-06
75 *52:6 *1023:A 0.000329409
76 *52:6 *175:63 0.000104527
77 *54:8 *1025:A 5.91417e-06
78 *57:6 *175:28 9.80703e-06
79 *62:14 *175:67 7.87877e-05
80 *62:22 *175:80 0.000481072
81 *65:10 *175:153 6.12496e-06
82 *65:10 *175:157 0.000484485
83 *68:14 *1020:A 1.47795e-05
84 *68:14 *1026:A 3.20631e-05
85 *68:14 *175:157 0.000529239
86 *71:26 *175:115 0.000314211
87 *77:16 *175:14 0.000346539
88 *87:65 *175:50 0.000622125
89 *87:69 *175:28 1.13812e-05
90 *87:69 *175:50 0.00143599
91 *93:94 *175:115 0.000135557
92 *98:6 *1025:A 8.89091e-05
93 *102:22 *175:80 4.83824e-05
94 *112:151 *175:153 0.000254957
95 *119:37 *175:153 3.09919e-05
96 *121:14 *175:14 0.000103258
97 *126:37 *175:14 2.11066e-05
98 *128:12 *175:63 9.12967e-05
99 *128:12 *175:80 0.000258587
100 *133:22 *175:14 8.27917e-05
101 *133:22 *175:137 4.78593e-05
102 *138:14 *175:137 0.000454758
103 *146:78 *175:50 0.00040801
104 *146:80 *175:50 0.000293353
105 *146:90 *175:28 0.000252074
106 *146:90 *175:50 0.000498231
107 *148:41 *175:115 0.00010763
108 *148:52 *175:115 8.6438e-05
109 *154:40 *175:80 0.000134767
110 *154:44 *1025:A 5.55615e-05
111 *154:52 *1025:A 0.000140803
112 *166:29 *175:153 1.14876e-05
113 *166:53 *175:137 0.000649395
114 *166:53 *175:153 0
115 *168:30 *175:67 0.00121049
116 *171:24 *175:115 0.000113661
117 *173:60 *175:14 5.3304e-05
118 *173:60 *175:137 9.77405e-05
119 *173:72 *175:137 5.67427e-05
*RES
1 *1018:X *175:4 23 
2 *175:4 *175:14 46.3159 
3 *175:14 *175:16 8 
4 *175:16 *175:28 33.3529 
5 *175:28 *1028:A 23 
6 *175:16 *1024:A 38.1864 
7 *175:16 *175:50 44.5593 
8 *175:50 *1023:A 30.7679 
9 *175:50 *175:63 20.8414 
10 *175:63 *175:67 28.485 
11 *175:67 *1027:A 23 
12 *175:63 *175:80 44.7871 
13 *175:80 *1025:A 39.24 
14 *175:80 *175:103 43.2779 
15 *175:103 *175:115 45.7429 
16 *175:115 *1019:A 23 
17 *175:103 *1022:A 23.6214 
18 *175:4 *175:137 45.6393 
19 *175:137 *175:153 36.4421 
20 *175:153 *175:157 35.2171 
21 *175:157 *175:159 15 
22 *175:159 *1026:A 24.0979 
23 *175:159 *1020:A 23.6214 
24 *175:153 *1021:A 23 
*END

*D_NET *176 0.0521008
*CONN
*I *1033:A I *D sky130_fd_sc_hd__inv_2
*I *1030:A I *D sky130_fd_sc_hd__inv_2
*I *1038:A I *D sky130_fd_sc_hd__inv_2
*I *1039:A I *D sky130_fd_sc_hd__inv_2
*I *1035:A I *D sky130_fd_sc_hd__inv_2
*I *1036:A I *D sky130_fd_sc_hd__inv_2
*I *1032:A I *D sky130_fd_sc_hd__inv_2
*I *1037:A I *D sky130_fd_sc_hd__inv_2
*I *1031:A I *D sky130_fd_sc_hd__inv_2
*I *1034:A I *D sky130_fd_sc_hd__inv_2
*I *1029:X O *D sky130_fd_sc_hd__clkbuf_8
*CAP
1 *1033:A 9.24384e-05
2 *1030:A 0
3 *1038:A 4.52431e-05
4 *1039:A 0.000225909
5 *1035:A 0
6 *1036:A 0
7 *1032:A 0
8 *1037:A 0
9 *1031:A 1.53552e-05
10 *1034:A 0.000399088
11 *1029:X 0.000199946
12 *176:170 0.000304071
13 *176:153 0.000731453
14 *176:141 0.00143754
15 *176:135 0.00153066
16 *176:118 0.00189246
17 *176:114 0.00146215
18 *176:97 0.000338809
19 *176:89 0.00126493
20 *176:82 0.000316295
21 *176:71 0.000958908
22 *176:65 0.00143305
23 *176:61 0.000650878
24 *176:59 0.000790567
25 *176:46 0.000388294
26 *176:40 0.00179483
27 *176:16 0.000662267
28 *176:14 0.00185259
29 *176:6 0.00118874
30 *1033:A *187:43 6.53382e-05
31 *1033:A *192:115 0.00012612
32 *1034:A *201:50 1.24376e-05
33 *1034:A *212:14 0.000475825
34 *1039:A *183:121 0.000221715
35 *1039:A *209:66 6.57304e-05
36 *1039:A *212:62 0.000262864
37 *1039:A *214:62 5.94125e-05
38 *176:14 *204:16 0.000183855
39 *176:16 *201:50 0.00068032
40 *176:40 *194:95 7.06552e-05
41 *176:40 *201:50 0.000699784
42 *176:40 *219:16 0.0029549
43 *176:46 *218:16 0
44 *176:59 *188:22 0.00131417
45 *176:59 *215:22 0.00113035
46 *176:59 *215:32 3.39192e-05
47 *176:65 *193:28 7.14493e-05
48 *176:65 *212:29 0.000730766
49 *176:65 *212:37 7.14785e-05
50 *176:71 *177:35 0.00083272
51 *176:71 *215:10 0.000137651
52 *176:82 *193:28 0.0003468
53 *176:89 *193:28 0.00032817
54 *176:97 *201:40 7.15518e-05
55 *176:114 *178:8 5.50049e-05
56 *176:114 *192:59 7.15126e-05
57 *176:114 *193:28 0.000252634
58 *176:118 *192:59 0.000209576
59 *176:135 *192:115 0.000222046
60 *176:135 *209:66 0.000388007
61 *176:141 *981:B2 0
62 *176:141 *191:105 0.00057769
63 *176:153 *182:109 0.000537277
64 *176:153 *196:108 0.000106671
65 *176:153 *197:79 2.4754e-05
66 *176:170 *981:B2 6.97359e-05
67 *176:170 *182:85 5.3304e-05
68 *176:170 *192:121 2.75733e-06
69 *176:170 *197:79 6.93345e-05
70 *895:A2 *1038:A 9.95589e-06
71 *895:A2 *176:153 1.76557e-05
72 *895:C1 *176:153 0.000202282
73 *909:A2 *176:65 2.02872e-05
74 *909:A2 *176:82 0.000147768
75 *909:A2 *176:89 0.000341693
76 *909:A2 *176:114 0.00026025
77 *909:B1 *176:65 5.3304e-05
78 *911:B1 *176:71 5.71002e-06
79 *936:C *176:135 0.000304722
80 *1056:D *176:97 5.3304e-05
81 *1070:RESET_B *176:118 1.87414e-05
82 *1075:RESET_B *176:71 7.13256e-05
83 *11:21 *176:114 0.000227257
84 *21:18 *1033:A 0.000261956
85 *21:18 *176:135 0.000219383
86 *28:18 *176:118 0.000122244
87 *29:16 *176:141 0
88 *30:6 *176:153 0.000971121
89 *35:10 *176:71 0
90 *46:26 *176:6 0.000213731
91 *46:26 *176:14 6.70361e-05
92 *60:8 *176:71 3.3577e-05
93 *63:8 *176:97 7.51453e-06
94 *65:10 *176:46 0.000629614
95 *71:26 *176:153 4.5051e-05
96 *79:8 *176:97 0.000110267
97 *84:39 *176:114 0.000227221
98 *84:39 *176:118 0.000522044
99 *85:30 *176:153 5.40655e-05
100 *87:65 *176:71 1.52259e-05
101 *90:20 *176:118 5.56279e-05
102 *90:20 *176:135 0.000746323
103 *92:14 *176:71 0.000150282
104 *94:8 *1034:A 0.000297143
105 *95:61 *176:118 0.000453777
106 *97:8 *176:6 0.000139977
107 *97:14 *176:59 0
108 *97:14 *176:65 0.000342939
109 *97:14 *176:82 0.000231039
110 *100:6 *176:65 0.000335715
111 *102:12 *176:71 8.22421e-06
112 *112:18 *176:97 0.000253966
113 *112:39 *176:97 0.000327319
114 *112:130 *176:170 0.000183093
115 *115:14 *176:153 0.000144284
116 *115:14 *176:170 5.3304e-05
117 *115:24 *176:141 0.000720706
118 *118:42 *176:135 6.36649e-05
119 *119:45 *1039:A 0.000206647
120 *119:45 *176:135 0.000699214
121 *133:60 *176:14 0.000181614
122 *133:75 *176:71 0.00146749
123 *136:12 *176:71 0.000990014
124 *137:14 *176:40 0.00241724
125 *142:16 *176:135 2.79858e-05
126 *142:16 *176:141 1.75427e-05
127 *144:6 *176:114 0.000339369
128 *146:116 *1034:A 9.62666e-05
129 *146:116 *176:16 0.00016948
130 *146:116 *176:40 8.48594e-05
131 *151:24 *176:153 0.00012144
132 *159:24 *176:114 0.000225026
133 *162:26 *176:97 0.000129751
134 *162:48 *176:16 0.000343689
135 *162:48 *176:40 0.000645056
136 *168:16 *176:97 0.00017801
137 *175:80 *176:71 0
138 *175:157 *176:46 0.000453646
*RES
1 *1029:X *176:6 27.4329 
2 *176:6 *176:14 34.1843 
3 *176:14 *176:16 7.76786 
4 *176:16 *1034:A 32.8393 
5 *176:16 *1031:A 23.4971 
6 *176:14 *176:40 43.6657 
7 *176:40 *176:46 38.9486 
8 *176:46 *1037:A 23 
9 *176:6 *176:59 35.9836 
10 *176:59 *176:61 15 
11 *176:61 *176:65 28.0086 
12 *176:65 *176:71 44.5386 
13 *176:71 *1032:A 23 
14 *176:61 *176:82 6.50429 
15 *176:82 *1036:A 23 
16 *176:82 *176:89 3.95643 
17 *176:89 *176:97 38.8657 
18 *176:97 *1035:A 23 
19 *176:89 *176:114 46.4886 
20 *176:114 *176:118 30.8671 
21 *176:118 *1039:A 43.9657 
22 *176:118 *176:135 40.5614 
23 *176:135 *176:141 40.7093 
24 *176:141 *176:153 49.9479 
25 *176:153 *1038:A 23.8493 
26 *176:141 *176:170 36.235 
27 *176:170 *1030:A 23 
28 *176:135 *1033:A 26.0036 
*END

*D_NET *177 0.0440084
*CONN
*I *1041:A I *D sky130_fd_sc_hd__inv_2
*I *1050:A I *D sky130_fd_sc_hd__inv_2
*I *1043:A I *D sky130_fd_sc_hd__inv_2
*I *1042:A I *D sky130_fd_sc_hd__inv_2
*I *1044:A I *D sky130_fd_sc_hd__inv_2
*I *1047:A I *D sky130_fd_sc_hd__inv_2
*I *1048:A I *D sky130_fd_sc_hd__inv_2
*I *1049:A I *D sky130_fd_sc_hd__inv_2
*I *1045:A I *D sky130_fd_sc_hd__inv_2
*I *1046:A I *D sky130_fd_sc_hd__inv_2
*I *1040:X O *D sky130_fd_sc_hd__buf_4
*CAP
1 *1041:A 0
2 *1050:A 0
3 *1043:A 0.000224142
4 *1042:A 0.000232245
5 *1044:A 0.000632356
6 *1047:A 0
7 *1048:A 6.96351e-05
8 *1049:A 4.03795e-05
9 *1045:A 0
10 *1046:A 0.000376301
11 *1040:X 0
12 *177:148 0.00103246
13 *177:123 0.00160585
14 *177:117 0.00109951
15 *177:89 0.00129751
16 *177:80 0.00240813
17 *177:61 0.00215363
18 *177:57 0.00154828
19 *177:35 0.00047544
20 *177:22 0.000958427
21 *177:20 0.00124774
22 *177:16 0.00296544
23 *177:12 0.00315996
24 *177:4 0.00198443
25 *177:12 *190:20 0.000566479
26 *177:12 *193:16 0
27 *177:20 *195:126 0.000395349
28 *177:35 *203:75 0
29 *177:57 *181:44 0.000734747
30 *177:57 *207:12 0.00090821
31 *177:57 *207:18 3.60508e-05
32 *177:61 *202:26 0.000162812
33 *177:80 *187:85 1.05658e-05
34 *177:80 *202:26 0.000585539
35 *177:80 *205:12 0.000121132
36 *177:89 *199:70 0.000208228
37 *177:89 *199:80 0.000129325
38 *177:117 *207:18 0.000139657
39 *177:123 *198:51 0.000180861
40 *177:123 *204:62 1.01436e-05
41 *177:148 *183:87 1.05441e-05
42 *177:148 *220:31 0.000139692
43 seg[0] *177:80 2.73373e-05
44 *960:B *1046:A 6.17437e-06
45 *960:B *177:22 9.00387e-05
46 *1002:B *1043:A 0.000324531
47 *1002:B *177:123 0.000328877
48 *1015:A2 *177:148 4.54443e-05
49 *1015:B1 *177:148 1.05441e-05
50 *1074:RESET_B *177:148 0.00156682
51 *21:12 *177:80 0.000108112
52 *21:16 *1042:A 0.000434561
53 *21:16 *177:80 0.00054968
54 *21:16 *177:89 0.00111472
55 *23:12 *177:148 9.14716e-05
56 *26:24 *177:148 0.000729003
57 *39:6 *177:117 4.2573e-05
58 *39:6 *177:123 0.00021677
59 *41:16 *177:57 0.000490927
60 *41:16 *177:117 0.000545217
61 *42:12 *177:80 0.00038749
62 *46:26 *177:16 0.00126036
63 *53:22 *177:20 4.41394e-05
64 *65:10 *177:57 3.9827e-05
65 *70:16 *1043:A 0
66 *70:16 *177:123 0
67 *73:8 *1046:A 0.00011451
68 *74:14 *177:80 0.000825627
69 *75:8 *1048:A 4.67488e-05
70 *77:16 *177:148 3.7681e-05
71 *87:65 *177:20 0.000512799
72 *87:65 *177:35 6.79467e-05
73 *91:27 *177:80 8.98103e-05
74 *93:48 *177:20 0.000416588
75 *93:126 *177:12 0.000131527
76 *93:126 *177:148 2.64114e-05
77 *97:8 *177:12 0.000176977
78 *97:8 *177:16 4.49353e-05
79 *102:47 *177:80 1.58893e-05
80 *108:18 *177:117 0.000259521
81 *111:14 *1042:A 0
82 *117:8 *1048:A 0.000136738
83 *128:12 *177:20 2.05179e-05
84 *130:14 *177:61 0
85 *130:14 *177:80 0
86 *133:22 *177:148 8.06804e-06
87 *133:30 *177:148 2.23467e-05
88 *139:14 *177:57 0.000105289
89 *141:12 *177:148 6.69637e-06
90 *146:70 *177:20 0.00184969
91 *146:78 *177:20 5.00353e-05
92 *146:124 *177:16 8.48422e-05
93 *166:14 *177:123 0.000177599
94 *167:47 *177:117 0.000681774
95 *172:14 *177:117 5.3304e-05
96 *172:14 *177:123 0.00021677
97 *173:90 *1042:A 0
98 *175:50 *177:20 0.000689221
99 *175:80 *177:35 0
100 *176:71 *177:35 0.00083272
*RES
1 *1040:X *177:4 23 
2 *177:4 *177:12 47.2964 
3 *177:12 *177:16 38.49 
4 *177:16 *177:20 48.2464 
5 *177:20 *177:22 2.05071 
6 *177:22 *1046:A 29.3386 
7 *177:22 *177:35 41.4136 
8 *177:35 *1045:A 23 
9 *177:12 *1049:A 23.8493 
10 *177:4 *177:57 46.7371 
11 *177:57 *177:61 17.2579 
12 *177:61 *1048:A 39.5743 
13 *177:61 *177:80 38.3757 
14 *177:80 *1047:A 38 
15 *177:80 *177:89 14.5829 
16 *177:89 *1044:A 46.7207 
17 *177:89 *1042:A 43.7793 
18 *177:57 *177:117 46.2607 
19 *177:117 *177:123 24.5389 
20 *177:123 *1043:A 42.5468 
21 *177:123 *177:148 38.0933 
22 *177:148 *1050:A 23 
23 *177:117 *1041:A 23 
*END

*D_NET *178 0.013481
*CONN
*I *1090:A I *D sky130_fd_sc_hd__clkbuf_16
*I *1088:A I *D sky130_fd_sc_hd__clkbuf_16
*I *1087:A I *D sky130_fd_sc_hd__clkbuf_16
*I *1089:A I *D sky130_fd_sc_hd__clkbuf_16
*I *1086:X O *D sky130_fd_sc_hd__clkbuf_16
*CAP
1 *1090:A 0
2 *1088:A 0
3 *1087:A 0
4 *1089:A 0.000291587
5 *1086:X 1.50079e-05
6 *178:59 0.000737315
7 *178:44 0.000806042
8 *178:33 0.00214998
9 *178:14 0.00208654
10 *178:8 0.00120334
11 *1089:A *185:43 0.000443159
12 *178:14 *905:B 2.08013e-05
13 *178:14 *905:C 0.000154846
14 *178:14 *905:D 0.000253972
15 *178:14 *190:14 0.000181289
16 *178:33 *205:26 0.000125842
17 *178:44 *201:24 0.000162878
18 *178:44 *205:26 0.000924926
19 *178:59 *905:B 3.73731e-05
20 *178:59 *905:D 0.000186532
21 *178:59 *191:86 0.000225238
22 *178:59 *192:82 0.000312987
23 *178:59 *203:48 0.000182522
24 *178:59 *203:90 0.000139586
25 *178:59 *208:18 5.3304e-05
26 *178:59 *208:34 3.33144e-05
27 *178:59 *214:82 1.01436e-05
28 *960:C *178:59 0.000477616
29 *20:119 *178:14 0.000105798
30 *51:24 *178:33 2.33476e-05
31 *51:24 *178:44 0.00107672
32 *79:28 *178:59 7.17051e-05
33 *84:39 *178:8 5.50049e-05
34 *90:14 *178:59 5.18413e-05
35 *91:27 *178:33 0.000362153
36 *95:32 *178:14 1.0794e-05
37 *95:55 *178:14 0.000156487
38 *149:24 *178:44 3.52734e-05
39 *162:14 *178:44 0.000147409
40 *162:38 *178:33 1.23773e-05
41 *162:38 *178:44 0.000100987
42 *176:114 *178:8 5.50049e-05
*RES
1 *1086:X *178:8 38.6214 
2 *178:8 *178:14 9.715 
3 *178:14 *1089:A 43.3857 
4 *178:14 *178:33 19.1248 
5 *178:33 *1087:A 38 
6 *178:33 *178:44 35.2171 
7 *178:44 *1088:A 23 
8 *178:8 *178:59 32.9179 
9 *178:59 *1090:A 23 
*END

*D_NET *179 0.0120659
*CONN
*I *1091:A I *D sky130_fd_sc_hd__bufinv_16
*I *1053:CLK I *D sky130_fd_sc_hd__dfrtp_4
*I *1073:CLK I *D sky130_fd_sc_hd__dfrtp_2
*I *1062:CLK I *D sky130_fd_sc_hd__dfrtp_2
*I *1079:CLK I *D sky130_fd_sc_hd__dfrtp_2
*I *1074:CLK I *D sky130_fd_sc_hd__dfrtp_2
*I *1082:CLK I *D sky130_fd_sc_hd__dfrtp_4
*I *1087:X O *D sky130_fd_sc_hd__clkbuf_16
*CAP
1 *1091:A 5.48945e-05
2 *1053:CLK 0.000148962
3 *1073:CLK 0
4 *1062:CLK 0
5 *1079:CLK 0.000125817
6 *1074:CLK 0.000147186
7 *1082:CLK 0.000218913
8 *1087:X 0.000160255
9 *179:64 0.000707849
10 *179:35 0.000466375
11 *179:22 0.000808356
12 *179:18 0.000581034
13 *179:16 0.00101099
14 *179:14 0.000424325
15 *179:10 0.000372338
16 *1053:CLK *190:46 9.91824e-05
17 *1074:CLK *214:10 3.88043e-05
18 *179:10 *183:139 6.70361e-05
19 *179:14 *214:10 1.0092e-05
20 *179:16 *214:10 0.000230621
21 *179:18 *214:10 0.000411536
22 *179:22 *214:10 0.000808104
23 *179:35 *214:10 3.93904e-06
24 *1016:A *1082:CLK 2.50118e-05
25 *1016:A *179:35 8.75254e-05
26 *1053:RESET_B *179:10 0.000157147
27 *1053:RESET_B *179:14 8.87064e-05
28 *1056:D *1091:A 0.000135037
29 *1079:D *1079:CLK 0.00026586
30 *1082:RESET_B *1082:CLK 0.000343573
31 *1082:RESET_B *179:35 9.2057e-05
32 *20:58 *1053:CLK 8.87493e-05
33 *20:66 *1053:CLK 7.14447e-05
34 *31:12 *179:64 0.00051066
35 *38:24 *179:35 0.000158463
36 *52:6 *179:10 0.000135037
37 *59:18 *179:10 9.80123e-05
38 *59:18 *179:14 4.92637e-06
39 *81:16 *1082:CLK 0.000611306
40 *81:16 *179:14 0.000179657
41 *81:16 *179:16 0.000222167
42 *81:16 *179:18 0.000403233
43 *81:16 *179:22 0.000808104
44 *84:12 *1074:CLK 0
45 *89:10 *179:64 0.000107611
46 *89:20 *1091:A 0.000137525
47 *133:14 *1074:CLK 9.33356e-05
48 *133:14 *179:35 6.85105e-05
49 *133:60 *179:35 9.23705e-06
50 *133:60 *179:64 0.000266428
*RES
1 *1087:X *179:10 41.8321 
2 *179:10 *179:14 3.58357 
3 *179:14 *179:16 3.31429 
4 *179:16 *179:18 5.77929 
5 *179:18 *179:22 26.4136 
6 *179:22 *1082:CLK 30.2914 
7 *179:22 *179:35 19.6607 
8 *179:35 *1074:CLK 40.9621 
9 *179:35 *1079:CLK 40.9466 
10 *179:18 *1062:CLK 38 
11 *179:16 *179:64 28.9614 
12 *179:64 *1073:CLK 23 
13 *179:14 *1053:CLK 41.48 
14 *179:10 *1091:A 39.5743 
*END

*D_NET *180 0.0137094
*CONN
*I *1061:CLK I *D sky130_fd_sc_hd__dfrtp_1
*I *1077:CLK I *D sky130_fd_sc_hd__dfrtp_1
*I *1076:CLK I *D sky130_fd_sc_hd__dfrtp_2
*I *1075:CLK I *D sky130_fd_sc_hd__dfrtp_2
*I *1081:CLK I *D sky130_fd_sc_hd__dfrtp_4
*I *1064:CLK I *D sky130_fd_sc_hd__dfrtp_4
*I *1055:CLK I *D sky130_fd_sc_hd__dfrtp_4
*I *1092:A I *D sky130_fd_sc_hd__clkinv_2
*I *1088:X O *D sky130_fd_sc_hd__clkbuf_16
*CAP
1 *1061:CLK 0
2 *1077:CLK 0.000161316
3 *1076:CLK 0.000364448
4 *1075:CLK 0
5 *1081:CLK 0.000499815
6 *1064:CLK 0.000251527
7 *1055:CLK 0.000416496
8 *1092:A 4.24639e-05
9 *1088:X 0
10 *180:99 0.000718071
11 *180:49 0.000617753
12 *180:45 0.00075002
13 *180:43 0.000533557
14 *180:32 0.00045802
15 *180:21 0.000658248
16 *180:10 0.000484147
17 *180:4 0.00101989
18 *1055:CLK *187:20 0.000472927
19 *1055:CLK *198:33 7.73035e-05
20 *1077:CLK *191:94 5.56279e-05
21 *1077:CLK *197:55 0.000262574
22 *1081:CLK *183:16 0.000366616
23 *1081:CLK *200:8 5.3304e-05
24 *1081:CLK *200:35 0.000103645
25 *180:43 *191:94 2.37243e-05
26 *180:45 *191:94 1.57352e-05
27 *180:99 *188:22 0
28 *180:99 *194:29 0.000146822
29 *955:A *1055:CLK 0.000488453
30 *960:B *1092:A 2.64616e-05
31 *960:B *180:10 0.000303448
32 *960:B *180:99 0.000231339
33 *1065:RESET_B *1076:CLK 0
34 *1075:D *1081:CLK 7.73389e-05
35 *1075:D *180:49 2.32004e-05
36 *1077:RESET_B *1077:CLK 0.000105913
37 *1081:D *1081:CLK 7.88828e-05
38 *35:14 *1076:CLK 2.93845e-05
39 *38:12 *1076:CLK 0.000120728
40 *47:10 *180:99 2.26406e-05
41 *48:14 *1076:CLK 3.56477e-05
42 *48:20 *1076:CLK 0.000221994
43 *48:20 *180:10 8.50956e-05
44 *48:20 *180:21 0.000389368
45 *48:20 *180:32 0.000226584
46 *48:20 *180:43 0.000177292
47 *48:20 *180:45 0.00040492
48 *51:18 *180:99 0
49 *91:54 *180:45 0
50 *134:12 *1055:CLK 0.00022266
51 *148:29 *180:99 0.000456447
52 *148:41 *1076:CLK 1.53445e-05
53 *148:41 *180:45 0
54 *148:52 *1076:CLK 3.96396e-05
55 *149:16 *180:99 3.90492e-05
56 *154:40 *1064:CLK 0.000214016
57 *155:37 *180:99 2.68974e-05
58 *155:39 *180:99 5.40241e-05
59 *165:12 *180:10 8.28736e-05
60 *165:12 *180:21 0.000399511
61 *165:12 *180:32 0.000236676
62 *165:12 *180:43 0.000132285
63 *171:24 *1076:CLK 6.10551e-06
64 *175:103 *180:49 0.000181125
*RES
1 *1088:X *180:4 23 
2 *180:4 *180:10 19.6814 
3 *180:10 *1092:A 38.6214 
4 *180:10 *180:21 5.42714 
5 *180:21 *1055:CLK 48.6264 
6 *180:21 *180:32 3.31429 
7 *180:32 *1064:CLK 42.9093 
8 *180:32 *180:43 2.61 
9 *180:43 *180:45 5.77929 
10 *180:45 *180:49 17.5271 
11 *180:49 *1081:CLK 35.0557 
12 *180:49 *1075:CLK 23 
13 *180:45 *1076:CLK 45.1671 
14 *180:43 *1077:CLK 41.625 
15 *180:4 *180:99 43.195 
16 *180:99 *1061:CLK 23 
*END

*D_NET *181 0.0264698
*CONN
*I *1080:CLK I *D sky130_fd_sc_hd__dfrtp_1
*I *1059:CLK I *D sky130_fd_sc_hd__dfrtp_1
*I *1066:CLK I *D sky130_fd_sc_hd__dfrtp_1
*I *1056:CLK I *D sky130_fd_sc_hd__dfrtp_2
*I *1093:A I *D sky130_fd_sc_hd__clkbuf_4
*I *1058:CLK I *D sky130_fd_sc_hd__dfrtp_2
*I *1057:CLK I *D sky130_fd_sc_hd__dfrtp_1
*I *1078:CLK I *D sky130_fd_sc_hd__dfrtp_4
*I *1069:CLK I *D sky130_fd_sc_hd__dfrtp_1
*I *1068:CLK I *D sky130_fd_sc_hd__dfrtp_2
*I *1089:X O *D sky130_fd_sc_hd__clkbuf_16
*CAP
1 *1080:CLK 0.000753623
2 *1059:CLK 0
3 *1066:CLK 5.249e-05
4 *1056:CLK 0.000159626
5 *1093:A 0.000403674
6 *1058:CLK 0
7 *1057:CLK 0
8 *1078:CLK 0
9 *1069:CLK 0
10 *1068:CLK 0
11 *1089:X 4.89752e-05
12 *181:100 0.00118329
13 *181:92 0.00199464
14 *181:82 0.00192997
15 *181:52 0.000719659
16 *181:44 0.00111806
17 *181:28 0.000513852
18 *181:20 0.00119286
19 *181:18 0.00135378
20 *181:12 0.000371753
21 *181:10 0.000572062
22 *181:8 0.00027487
23 *1056:CLK *183:61 0.000163044
24 *1056:CLK *183:77 0.000182199
25 *1056:CLK *196:16 0.000335611
26 *1066:CLK *183:57 5.3304e-05
27 *1066:CLK *183:61 2.53488e-05
28 *1066:CLK *196:16 5.91105e-05
29 *1066:CLK *211:31 2.64616e-05
30 *1080:CLK *915:A 4.53082e-05
31 *1080:CLK *915:B 0.000357139
32 *1093:A *183:111 4.50767e-05
33 *1093:A *192:41 0.000298503
34 *1093:A *206:12 0.00018561
35 *1093:A *208:93 5.40337e-05
36 *1093:A *208:110 0.000110243
37 *181:8 *206:18 9.41704e-05
38 *181:10 *209:24 0.000121982
39 *181:10 *214:62 0.000131263
40 *181:12 *209:24 0.000257862
41 *181:12 *214:62 0.000269243
42 *181:18 *192:41 3.52741e-05
43 *181:18 *209:24 0.000164172
44 *181:18 *209:44 6.92527e-05
45 *181:18 *214:62 0.000189703
46 *181:20 *191:41 4.08901e-05
47 *181:20 *192:18 0.000194747
48 *181:20 *192:35 0.000556678
49 *181:28 *189:71 0
50 *181:28 *192:18 6.12484e-05
51 *181:44 *203:20 9.65021e-05
52 *181:44 *207:12 5.19771e-05
53 *181:44 *215:55 0.000307967
54 *181:52 *185:66 0.000796789
55 *181:52 *207:12 0.000152614
56 *181:52 *214:39 6.17437e-06
57 *181:82 *209:24 0.000221783
58 *181:82 *214:62 0.000229737
59 *181:92 *209:18 0.00011804
60 *181:100 *183:57 0.000231786
61 *181:100 *190:8 7.48414e-05
62 *181:100 *212:56 1.69824e-05
63 *921:A *181:28 0.000457969
64 *921:C *181:28 0.000379845
65 *928:B *1093:A 5.56279e-05
66 *990:A *1080:CLK 5.95606e-05
67 *990:A *181:92 5.61255e-06
68 *1002:B *181:28 7.48516e-05
69 *1057:D *181:44 0.000587532
70 *1057:D *181:52 6.80001e-05
71 *1066:RESET_B *181:92 5.12927e-05
72 *1066:RESET_B *181:100 0.000220152
73 *1068:RESET_B *181:28 0.000759145
74 *1080:RESET_B *1080:CLK 4.67488e-05
75 *20:94 *1093:A 5.79559e-05
76 *20:104 *181:8 4.67488e-05
77 *41:16 *181:44 1.24376e-05
78 *46:10 *1066:CLK 1.39826e-05
79 *68:14 *1093:A 2.42041e-05
80 *70:8 *181:28 0.000145171
81 *103:38 *181:92 1.86692e-05
82 *103:175 *181:92 0.000117196
83 *104:12 *1080:CLK 0.000531726
84 *104:12 *181:92 0.000228049
85 *114:8 *1093:A 0.000191255
86 *119:37 *181:18 4.59507e-05
87 *119:37 *181:20 0.000202557
88 *119:37 *181:28 1.74126e-05
89 *137:14 *181:20 8.4047e-05
90 *137:31 *181:18 0.000129297
91 *137:31 *181:20 0.000283772
92 *138:22 *181:18 5.58534e-05
93 *138:22 *181:20 0.000775092
94 *155:84 *1080:CLK 2.64616e-05
95 *159:41 *1080:CLK 8.603e-05
96 *169:14 *181:52 0.00079903
97 *177:57 *181:44 0.000734747
*RES
1 *1089:X *181:8 39.0979 
2 *181:8 *181:10 1.90571 
3 *181:10 *181:12 3.66643 
4 *181:12 *181:18 6.19357 
5 *181:18 *181:20 17.4 
6 *181:20 *181:28 32.6693 
7 *181:28 *1068:CLK 23 
8 *181:20 *1069:CLK 38 
9 *181:18 *181:44 28.485 
10 *181:44 *181:52 46.7993 
11 *181:52 *1078:CLK 23 
12 *181:44 *1057:CLK 23 
13 *181:12 *1058:CLK 38 
14 *181:10 *1093:A 47.1971 
15 *181:8 *181:82 18.3143 
16 *181:82 *181:92 14.5207 
17 *181:92 *181:100 29.0029 
18 *181:100 *1056:CLK 42.7229 
19 *181:100 *1066:CLK 39.4707 
20 *181:92 *1059:CLK 23 
21 *181:82 *1080:CLK 37.9143 
*END

*D_NET *182 0.0207662
*CONN
*I *1065:CLK I *D sky130_fd_sc_hd__dfrtp_2
*I *1063:CLK I *D sky130_fd_sc_hd__dfrtp_2
*I *1060:CLK I *D sky130_fd_sc_hd__dfrtp_2
*I *1083:CLK I *D sky130_fd_sc_hd__dfrtp_4
*I *1084:CLK I *D sky130_fd_sc_hd__dfrtp_4
*I *1054:CLK I *D sky130_fd_sc_hd__dfrtp_4
*I *1072:CLK I *D sky130_fd_sc_hd__dfrtp_4
*I *1070:CLK I *D sky130_fd_sc_hd__dfrtp_4
*I *1071:CLK I *D sky130_fd_sc_hd__dfrtp_4
*I *1067:CLK I *D sky130_fd_sc_hd__dfrtp_4
*I *1090:X O *D sky130_fd_sc_hd__clkbuf_16
*CAP
1 *1065:CLK 0
2 *1063:CLK 7.50684e-05
3 *1060:CLK 0
4 *1083:CLK 0
5 *1084:CLK 0
6 *1054:CLK 0
7 *1072:CLK 0.000247148
8 *1070:CLK 0
9 *1071:CLK 0.000138902
10 *1067:CLK 0.000113616
11 *1090:X 0
12 *182:109 0.000347553
13 *182:91 0.000507733
14 *182:85 0.000942055
15 *182:81 0.00083438
16 *182:72 0.000535076
17 *182:60 0.000408948
18 *182:40 0.00065795
19 *182:36 0.00104283
20 *182:34 0.000546684
21 *182:32 0.000293577
22 *182:28 0.000930645
23 *182:17 0.000447769
24 *182:4 0.000192916
25 *1067:CLK *191:22 5.12254e-05
26 *1071:CLK *214:72 2.64616e-05
27 *1072:CLK *198:37 0.000652976
28 *182:17 *214:70 0.000111926
29 *182:36 *189:43 0.00017801
30 *182:40 *189:43 0.0010055
31 *182:40 *189:61 0.000181251
32 *182:60 *187:43 0.000490769
33 *182:60 *189:43 0.000202621
34 *182:60 *192:115 0.000316338
35 *182:85 *966:B 0.000136743
36 *182:91 *902:D 1.252e-05
37 *182:91 *196:133 0.000144923
38 *182:91 *198:103 0.000734561
39 *182:91 *201:82 0
40 *966:C *182:85 0.000229693
41 *1059:RESET_B *182:40 0.000169981
42 *1063:RESET_B *1063:CLK 0.000344292
43 *1063:RESET_B *182:85 0.0002263
44 *1067:D *1067:CLK 0.000202429
45 *1071:D *1071:CLK 9.4618e-05
46 *21:18 *182:60 0.0004343
47 *28:18 *182:40 0.000833624
48 *29:16 *182:17 1.1974e-05
49 *29:16 *182:28 6.22032e-05
50 *29:16 *182:109 4.24694e-06
51 *30:6 *182:109 0.000294988
52 *44:8 *1071:CLK 0.000164938
53 *49:26 *1072:CLK 0.000210354
54 *54:20 *182:40 9.92307e-06
55 *71:12 *182:28 5.61991e-05
56 *71:12 *182:72 0.000271037
57 *71:12 *182:81 9.93833e-05
58 *71:12 *182:109 6.83037e-05
59 *71:26 *182:109 0.00106573
60 *85:16 *182:60 0
61 *86:39 *182:60 0.000115228
62 *88:14 *1063:CLK 0.000198206
63 *88:14 *182:85 0.000488616
64 *93:8 *182:91 0.000140343
65 *102:45 *182:60 0
66 *112:117 *182:32 0.000517104
67 *112:117 *182:36 3.73464e-05
68 *137:63 *182:72 0.00011573
69 *137:63 *182:81 7.34717e-05
70 *142:8 *182:85 0.000137651
71 *145:10 *182:91 0
72 *151:24 *182:109 0.000110155
73 *158:18 *182:40 0
74 *167:18 *182:17 0.000163613
75 *167:18 *182:28 0.00037258
76 *167:18 *182:72 0.00034235
77 *176:153 *182:109 0.000537277
78 *176:170 *182:85 5.3304e-05
*RES
1 *1090:X *182:4 23 
2 *182:4 *1067:CLK 25.9 
3 *182:4 *182:17 17.2579 
4 *182:17 *1071:CLK 41.48 
5 *182:17 *182:28 5.42714 
6 *182:28 *182:32 20.8621 
7 *182:32 *182:34 15 
8 *182:34 *182:36 2.61 
9 *182:36 *182:40 32.0479 
10 *182:40 *1070:CLK 23 
11 *182:36 *1072:CLK 45.2914 
12 *182:34 *182:60 27.1593 
13 *182:60 *1054:CLK 23 
14 *182:32 *1084:CLK 23 
15 *182:28 *182:72 8.94857 
16 *182:72 *1083:CLK 38 
17 *182:72 *182:81 2.96214 
18 *182:81 *182:85 26.5793 
19 *182:85 *182:91 41.4136 
20 *182:91 *1060:CLK 23 
21 *182:85 *1063:CLK 26.9564 
22 *182:81 *182:109 29.1893 
23 *182:109 *1065:CLK 23 
*END

*D_NET *183 0.0429294
*CONN
*I *892:C I *D sky130_fd_sc_hd__nor3_2
*I *889:C I *D sky130_fd_sc_hd__and3_1
*I *1012:C I *D sky130_fd_sc_hd__or3_1
*I *899:A2 I *D sky130_fd_sc_hd__o21a_1
*I *896:A2 I *D sky130_fd_sc_hd__a21oi_1
*I *1015:A1 I *D sky130_fd_sc_hd__a21oi_1
*I *898:A2 I *D sky130_fd_sc_hd__a21oi_1
*I *1081:Q O *D sky130_fd_sc_hd__dfrtp_4
*CAP
1 *892:C 0.000121662
2 *889:C 0
3 *1012:C 0
4 *899:A2 0
5 *896:A2 5.17085e-05
6 *1015:A1 0
7 *898:A2 0.000277775
8 *1081:Q 0.000825682
9 *183:145 0.00135246
10 *183:139 0.00219773
11 *183:128 0.000845272
12 *183:121 0.000840458
13 *183:111 0.00135722
14 *183:87 0.000807854
15 *183:81 0.00108437
16 *183:77 0.00164696
17 *183:61 0.00100053
18 *183:57 0.00102869
19 *183:47 0.00136682
20 *183:28 0.00138581
21 *183:24 0.000936474
22 *183:16 0.00192884
23 *183:12 0.00261448
24 *892:C *893:A 0.000603707
25 *898:A2 *898:A1 0.000180843
26 *183:24 *893:A 0.000225274
27 *183:24 *189:18 4.51797e-05
28 *183:28 *188:121 2.26406e-05
29 *183:57 *208:18 0.00120203
30 *183:57 *211:31 7.9438e-05
31 *183:77 *928:A 3.23857e-06
32 *183:77 *184:66 9.17365e-05
33 *183:77 *184:103 0.000289764
34 *183:77 *196:16 1.09942e-05
35 *183:77 *206:12 0.000496399
36 *183:81 *208:93 0.00013333
37 *183:87 *209:44 0.000532725
38 *183:111 *191:41 0.00059948
39 *183:111 *208:93 0.000100069
40 *183:111 *208:110 0.00025357
41 *183:121 *187:47 8.68903e-05
42 *183:121 *194:10 9.67842e-05
43 *183:121 *198:43 0.000187996
44 *183:121 *212:62 0.000397892
45 *183:145 *889:A 7.9956e-05
46 *183:145 *201:56 0.000997468
47 *183:145 *222:12 0
48 *932:C *183:81 0
49 *960:B *898:A2 3.57595e-06
50 *994:B1 *183:24 3.04333e-05
51 *1015:B1 *183:87 5.08422e-06
52 *1039:A *183:121 0.000221715
53 *1056:CLK *183:61 0.000163044
54 *1056:CLK *183:77 0.000182199
55 *1056:D *183:77 9.64703e-05
56 *1056:RESET_B *183:139 0.000103089
57 *1066:CLK *183:57 5.3304e-05
58 *1066:CLK *183:61 2.53488e-05
59 *1075:D *183:16 0.000737842
60 *1081:CLK *183:16 0.000366616
61 *1081:D *183:12 6.17437e-06
62 *1081:D *183:16 4.07178e-05
63 *1081:RESET_B *183:12 3.41714e-05
64 *1093:A *183:111 4.50767e-05
65 *20:32 *183:145 8.24523e-05
66 *20:119 *183:57 0.000842618
67 *20:216 *183:12 7.73918e-05
68 *35:10 *183:12 0
69 *37:10 *183:145 0.000741418
70 *46:10 *183:61 0.00018014
71 *46:10 *183:77 0.000209242
72 *52:6 *183:139 0.000417072
73 *53:22 *183:145 0.00053834
74 *63:8 *183:77 5.5792e-05
75 *68:14 *183:77 0.00057459
76 *68:14 *183:111 0.000517104
77 *79:14 *183:139 0.000178391
78 *85:42 *183:16 0.00029744
79 *87:32 *183:24 6.3704e-06
80 *87:44 *183:28 8.652e-05
81 *93:38 *183:57 0.000304129
82 *93:40 *183:47 0.000476747
83 *93:120 *183:81 0
84 *93:126 *183:81 5.21872e-05
85 *93:126 *183:87 0.00118307
86 *96:16 *183:87 0
87 *103:52 *183:81 0.000202435
88 *103:52 *183:87 0
89 *103:209 *183:16 2.92911e-06
90 *103:209 *183:28 7.89883e-05
91 *112:24 *183:139 0.000759133
92 *118:22 *183:28 0.000224156
93 *120:14 *183:47 2.02872e-05
94 *122:12 *183:57 8.81512e-05
95 *122:20 *183:57 5.0888e-05
96 *122:28 *183:28 3.34818e-06
97 *124:10 *898:A2 8.36198e-05
98 *124:10 *183:28 0.000802633
99 *126:128 *892:C 0.000612578
100 *126:128 *183:24 0.000222953
101 *127:12 *183:77 0.00021159
102 *128:12 *183:145 0.000262565
103 *132:14 *898:A2 3.88725e-05
104 *132:14 *183:28 0.000255532
105 *133:49 *183:87 0
106 *137:31 *183:111 0.000605528
107 *141:12 *183:87 0.000275692
108 *144:18 *183:57 5.06294e-05
109 *146:70 *183:145 0.000173233
110 *161:20 *183:28 4.72639e-05
111 *162:14 *183:28 0
112 *162:54 *183:145 0
113 *168:26 *183:139 0.000135037
114 *175:63 *183:139 5.3304e-05
115 *175:63 *183:145 3.46013e-05
116 *177:148 *183:87 1.05441e-05
117 *179:10 *183:139 6.70361e-05
118 *181:100 *183:57 0.000231786
*RES
1 *1081:Q *183:12 49.9521 
2 *183:12 *183:16 41.3486 
3 *183:16 *183:24 33.7286 
4 *183:24 *183:28 29.935 
5 *183:28 *898:A2 42.5779 
6 *183:28 *183:47 35.8621 
7 *183:47 *183:57 39.2357 
8 *183:57 *183:61 17.61 
9 *183:61 *183:77 38.4693 
10 *183:77 *183:81 19.8989 
11 *183:81 *183:87 32.8454 
12 *183:87 *1015:A1 23 
13 *183:81 *896:A2 38.9425 
14 *183:77 *183:111 44.4586 
15 *183:111 *183:121 44.8107 
16 *183:121 *899:A2 23 
17 *183:61 *183:128 15 
18 *183:128 *1012:C 23 
19 *183:128 *183:139 35.6521 
20 *183:139 *183:145 46.7136 
21 *183:145 *889:C 23 
22 *183:24 *892:C 29.815 
*END

*D_NET *184 0.0264008
*CONN
*I *1017:A1 I *D sky130_fd_sc_hd__a21oi_1
*I *896:B1 I *D sky130_fd_sc_hd__a21oi_1
*I *892:B I *D sky130_fd_sc_hd__nor3_2
*I *1014:A1 I *D sky130_fd_sc_hd__a21boi_1
*I *889:B I *D sky130_fd_sc_hd__and3_1
*I *1082:Q O *D sky130_fd_sc_hd__dfrtp_4
*CAP
1 *1017:A1 0
2 *896:B1 0
3 *892:B 0
4 *1014:A1 8.04051e-05
5 *889:B 0.000121222
6 *1082:Q 0.000351828
7 *184:103 0.000911187
8 *184:88 0.0010409
9 *184:74 0.00199921
10 *184:66 0.00203417
11 *184:62 0.000497218
12 *184:54 0.00172077
13 *184:33 0.0021891
14 *184:16 0.000984949
15 *184:10 0.000247772
16 *184:8 0.000456345
17 *889:B *194:71 0.000189448
18 *889:B *201:56 0.000163308
19 *889:B *222:12 0
20 *1014:A1 *215:40 0.000185371
21 *184:33 *196:26 2.05503e-05
22 *184:54 *195:73 0.000397759
23 *184:54 *196:16 0.000421893
24 *184:54 *211:14 0.000265907
25 *184:62 *186:29 0.000127311
26 *184:62 *211:14 0.000129575
27 *184:74 *186:18 4.90033e-05
28 *184:74 *208:18 0.000543051
29 *184:88 *892:A 5.95095e-05
30 *184:88 *196:89 0.000507976
31 *184:88 *197:64 0.000336439
32 *184:88 *199:41 4.8098e-05
33 *184:103 *190:14 0.000197187
34 *184:103 *190:20 0.000132342
35 *1014:A2 *184:33 2.12347e-06
36 *1014:A2 *184:54 7.71219e-06
37 *1016:A *184:8 0.000428553
38 *1062:RESET_B *184:10 0.000257301
39 *1062:RESET_B *184:16 2.44846e-05
40 *1073:RESET_B *184:103 0.000136743
41 *1078:RESET_B *184:54 0.000150153
42 *1082:RESET_B *184:8 8.42361e-05
43 *20:50 *184:103 8.83363e-05
44 *20:82 *184:103 5.71629e-05
45 *26:24 *184:16 5.89347e-05
46 *27:8 *184:88 0.000201056
47 *27:24 *184:88 0.000778414
48 *62:22 *184:74 9.28029e-05
49 *76:10 *184:54 2.33476e-05
50 *77:16 *1014:A1 9.90214e-05
51 *78:10 *184:33 6.77278e-05
52 *87:69 *184:10 5.36496e-06
53 *101:18 *184:88 4.8098e-05
54 *106:8 *184:62 6.52569e-05
55 *106:8 *184:103 0.000648211
56 *109:12 *184:33 0
57 *109:12 *184:54 0
58 *117:47 *184:74 2.32089e-05
59 *121:14 *184:16 0.000158422
60 *121:14 *184:33 0.000583736
61 *144:18 *184:74 0.00084199
62 *146:138 *184:74 0.000163559
63 *148:10 *184:54 2.24608e-05
64 *153:14 *184:33 7.62169e-05
65 *153:14 *184:54 0.000113447
66 *160:18 *184:54 0.000902017
67 *168:16 *184:54 0.000194561
68 *169:14 *184:74 0.00141293
69 *171:24 *184:88 0.000131406
70 *173:18 *184:33 2.53282e-05
71 *173:30 *184:10 0.00020215
72 *175:14 *184:16 0.000196877
73 *175:14 *184:33 0.00121566
74 *175:28 *184:10 1.49126e-05
75 *175:28 *184:16 5.58873e-06
76 *183:77 *184:66 9.17365e-05
77 *183:77 *184:103 0.000289764
*RES
1 *1082:Q *184:8 46.7207 
2 *184:8 *184:10 3.66643 
3 *184:10 *184:16 8.97814 
4 *184:16 *889:B 48.7861 
5 *184:16 *184:33 14.3028 
6 *184:33 *1014:A1 40.5479 
7 *184:33 *184:54 36.0226 
8 *184:54 *184:62 36.0693 
9 *184:62 *184:66 17.0507 
10 *184:66 *184:74 47.0994 
11 *184:74 *184:88 46.2117 
12 *184:88 *892:B 23 
13 *184:66 *184:103 46.9236 
14 *184:103 *896:B1 23 
15 *184:10 *1017:A1 38 
*END

*D_NET *185 0.0285679
*CONN
*I *894:A I *D sky130_fd_sc_hd__nor2_1
*I *890:A I *D sky130_fd_sc_hd__and2_1
*I *1010:B I *D sky130_fd_sc_hd__nor2_2
*I *1012:B I *D sky130_fd_sc_hd__or3_1
*I *893:A I *D sky130_fd_sc_hd__and2_1
*I *1083:Q O *D sky130_fd_sc_hd__dfrtp_4
*CAP
1 *894:A 0
2 *890:A 0
3 *1010:B 7.90884e-05
4 *1012:B 0
5 *893:A 0.000956727
6 *1083:Q 2.29409e-05
7 *185:90 0.00141539
8 *185:66 0.00171811
9 *185:57 0.000615601
10 *185:43 0.00303473
11 *185:27 0.000893647
12 *185:23 0.00135249
13 *185:19 0.00330894
14 *185:6 0.00163427
15 *893:A *199:58 6.37845e-05
16 *1010:B *1010:A 5.50106e-05
17 *1010:B *197:20 9.56814e-05
18 *185:6 *199:58 1.09903e-05
19 *185:19 *199:58 0.000439378
20 *185:23 *189:33 0
21 *185:23 *189:61 4.45778e-05
22 *185:23 *203:98 8.30566e-06
23 *185:27 *192:51 0.00017761
24 *185:27 *212:62 0.000350072
25 *185:43 *940:A 5.3304e-05
26 *185:43 *203:34 0
27 *185:43 *212:62 5.3304e-05
28 *185:57 *1012:A 2.02872e-05
29 *185:57 *186:18 8.42399e-05
30 *185:57 *186:29 8.30566e-06
31 *185:57 *208:18 1.64332e-05
32 *185:57 *211:14 8.18794e-05
33 *185:66 *186:29 0
34 *185:66 *197:20 0.000838918
35 *185:66 *197:33 0.000211313
36 *185:66 *214:39 8.4047e-05
37 *185:90 *931:B1 4.05745e-05
38 *185:90 *197:87 0
39 *185:90 *199:58 0.00144131
40 *890:B *185:43 1.14452e-05
41 *892:C *893:A 0.000603707
42 *1056:RESET_B *185:57 8.65242e-05
43 *1059:RESET_B *185:43 0.000158643
44 *1089:A *185:43 0.000443159
45 *20:104 *185:43 9.79925e-05
46 *47:20 *185:90 8.9458e-05
47 *79:14 *185:57 0.00022391
48 *96:12 *185:27 8.61159e-05
49 *96:12 *185:43 2.64616e-05
50 *96:37 *185:23 0.00197217
51 *103:38 *185:43 3.07067e-05
52 *103:52 *185:43 9.94087e-05
53 *103:209 *893:A 0.000267096
54 *122:12 *185:57 1.0092e-05
55 *126:116 *185:23 1.27408e-05
56 *126:128 *893:A 0.000621633
57 *137:63 *185:23 0.00131783
58 *159:18 *185:43 0.0009886
59 *159:18 *185:57 9.8592e-06
60 *167:18 *185:23 0.000367014
61 *169:14 *185:66 0.000540289
62 *173:10 *1010:B 0.000269775
63 *181:52 *185:66 0.000796789
64 *183:24 *893:A 0.000225274
*RES
1 *1083:Q *185:6 23.4971 
2 *185:6 *893:A 41.7464 
3 *185:6 *185:19 9.69429 
4 *185:19 *185:23 45.4293 
5 *185:23 *185:27 18.9564 
6 *185:27 *185:43 48.6429 
7 *185:43 *185:57 38.6793 
8 *185:57 *1012:B 23 
9 *185:43 *185:66 47.8943 
10 *185:66 *1010:B 41.5007 
11 *185:27 *890:A 23 
12 *185:19 *185:90 49.9271 
13 *185:90 *894:A 23 
*END

*D_NET *186 0.0179587
*CONN
*I *892:A I *D sky130_fd_sc_hd__nor3_2
*I *891:A I *D sky130_fd_sc_hd__xor2_1
*I *1010:A I *D sky130_fd_sc_hd__nor2_2
*I *1012:A I *D sky130_fd_sc_hd__or3_1
*I *1084:Q O *D sky130_fd_sc_hd__dfrtp_4
*CAP
1 *892:A 0.000117585
2 *891:A 0
3 *1010:A 1.24964e-05
4 *1012:A 0.000102133
5 *1084:Q 2.01025e-05
6 *186:46 0.000647973
7 *186:40 0.0010942
8 *186:29 0.00169751
9 *186:18 0.00313757
10 *186:8 0.00169916
11 *1010:A *197:20 3.22879e-05
12 *186:18 *940:A 0.000131799
13 *186:18 *192:86 9.75598e-06
14 *186:18 *197:33 0.000200016
15 *186:18 *212:37 2.97675e-05
16 *186:29 *195:83 4.32098e-05
17 *186:29 *208:18 0.000363311
18 *186:29 *208:78 0.000182875
19 *186:29 *210:55 1.81615e-05
20 *186:29 *211:14 0
21 *186:40 *192:86 3.13417e-05
22 *186:46 *188:102 2.48993e-05
23 *186:46 *188:121 3.21977e-05
24 *186:46 *188:129 0.000733931
25 *186:46 *205:36 1.59094e-05
26 *972:B1 *186:18 2.21866e-05
27 *972:B1 *186:40 2.82976e-05
28 *1010:B *1010:A 5.50106e-05
29 *1056:RESET_B *1012:A 0.000313028
30 *1056:RESET_B *186:29 0.000132039
31 *1079:RESET_B *186:29 0.000138321
32 *20:18 *186:29 0.000458975
33 *20:152 *186:8 5.56356e-05
34 *20:152 *186:18 0.000342248
35 *27:8 *892:A 3.38086e-05
36 *27:8 *186:40 0.000370366
37 *30:12 *186:40 0
38 *79:14 *1012:A 4.65192e-05
39 *83:10 *186:46 0.000181805
40 *83:38 *186:8 2.0803e-05
41 *86:39 *892:A 0.000176428
42 *86:39 *186:40 0.000167241
43 *103:14 *186:46 1.05841e-05
44 *103:113 *186:29 1.05887e-05
45 *122:28 *186:46 0.00052207
46 *126:136 *186:46 5.40337e-05
47 *142:32 *186:18 0.00035838
48 *144:26 *186:18 0.000153886
49 *146:138 *186:18 0.000410905
50 *154:20 *186:46 0.000195932
51 *159:18 *1012:A 0.000270918
52 *159:18 *186:18 0.000175903
53 *162:8 *186:46 2.02872e-05
54 *169:14 *186:18 0.00116219
55 *169:14 *186:29 2.71781e-05
56 *170:18 *186:29 0.00131625
57 *184:62 *186:29 0.000127311
58 *184:74 *186:18 4.90033e-05
59 *184:88 *892:A 5.95095e-05
60 *185:57 *1012:A 2.02872e-05
61 *185:57 *186:18 8.42399e-05
62 *185:57 *186:29 8.30566e-06
63 *185:66 *186:29 0
*RES
1 *1084:Q *186:8 38.6214 
2 *186:8 *186:18 46.1336 
3 *186:18 *1012:A 26.9564 
4 *186:18 *186:29 48.9507 
5 *186:29 *1010:A 38.6214 
6 *186:8 *186:40 6.48357 
7 *186:40 *186:46 31.24 
8 *186:46 *891:A 23 
9 *186:40 *892:A 40.61 
*END

*D_NET *187 0.0351446
*CONN
*I *902:D I *D sky130_fd_sc_hd__and4_4
*I *915:B I *D sky130_fd_sc_hd__nand2_1
*I *914:A I *D sky130_fd_sc_hd__nor2_1
*I *920:A2 I *D sky130_fd_sc_hd__a21o_1
*I *923:A3 I *D sky130_fd_sc_hd__a31o_1
*I *919:C I *D sky130_fd_sc_hd__nand3_1
*I *916:B I *D sky130_fd_sc_hd__or2_1
*I *1054:Q O *D sky130_fd_sc_hd__dfrtp_4
*CAP
1 *902:D 0.000358671
2 *915:B 0.000122924
3 *914:A 4.74765e-05
4 *920:A2 0
5 *923:A3 0.000112679
6 *919:C 0
7 *916:B 0
8 *1054:Q 0
9 *187:85 0.000272724
10 *187:79 0.000736754
11 *187:59 0.000703567
12 *187:55 0.00103503
13 *187:49 0.000736334
14 *187:47 0.00129031
15 *187:45 0.00142506
16 *187:43 0.00249986
17 *187:24 0.000678982
18 *187:20 0.00174197
19 *187:14 0.00153123
20 *187:4 0.00296809
21 *902:D *195:12 4.74024e-05
22 *902:D *198:103 0.000626266
23 *902:D *201:82 0
24 *902:D *206:65 7.56541e-05
25 *915:B *915:A 0.000223692
26 *923:A3 *923:A1 0.00038134
27 *923:A3 *198:62 0.000397596
28 *187:14 *202:10 5.3304e-05
29 *187:14 *205:36 0
30 *187:20 *1004:A1 2.26406e-05
31 *187:20 *198:33 0.00021083
32 *187:20 *203:75 0.000572751
33 *187:43 *192:115 0.00117206
34 *187:43 *202:10 0.000171251
35 *187:47 *195:12 8.73018e-05
36 *187:47 *198:43 5.8538e-05
37 *187:47 *198:45 4.24694e-06
38 *187:47 *198:103 0.000201928
39 *187:47 *206:65 0.000243414
40 *187:49 *198:45 4.53323e-05
41 *187:55 *923:A1 5.3304e-05
42 *187:55 *198:45 5.37659e-05
43 *187:55 *198:51 2.12347e-06
44 *187:55 *198:62 0.000135037
45 *187:59 *206:20 3.46013e-05
46 *187:59 *206:22 0.000249153
47 *187:59 *206:28 0.00136082
48 *187:59 *207:18 9.46902e-05
49 *187:59 *207:43 4.8171e-05
50 *187:85 *213:10 2.83283e-05
51 seg[0] *187:85 9.86551e-06
52 *948:A *187:24 9.84851e-05
53 *1033:A *187:43 6.53382e-05
54 *1055:CLK *187:20 0.000472927
55 *1060:D *187:47 0.000321842
56 *1063:RESET_B *902:D 5.50106e-05
57 *1080:CLK *915:B 0.000357139
58 *20:104 *187:79 0.00107441
59 *21:12 *187:79 5.82853e-05
60 *21:18 *187:43 0.000196023
61 *25:6 *187:20 0.000746715
62 *36:24 *187:14 0.000194197
63 *61:8 *187:43 9.41704e-05
64 *74:14 *187:85 0.000149214
65 *86:93 *187:47 7.38547e-05
66 *91:12 *187:55 1.05441e-05
67 *91:27 *187:55 2.26406e-05
68 *93:48 *187:20 4.98644e-05
69 *93:50 *187:24 0.000724527
70 *93:60 *187:24 0.000437346
71 *99:18 *187:24 0.000468891
72 *101:10 *902:D 0.000215086
73 *102:47 *187:85 0.000560892
74 *118:22 *187:14 3.47277e-05
75 *118:36 *187:43 0.000110041
76 *143:6 *187:24 5.61255e-06
77 *146:10 *187:47 0.000375069
78 *155:18 *187:24 0.000137361
79 *159:10 *187:79 0.000779667
80 *162:14 *187:14 0.000409476
81 *165:35 *187:47 7.91206e-05
82 *166:8 *187:47 0.000832537
83 *166:8 *187:49 0.000186384
84 *166:8 *187:55 0.000232591
85 *167:43 *187:59 8.77939e-05
86 *167:47 *187:59 0.0011443
87 *175:80 *187:20 0.000754704
88 *177:80 *187:85 1.05658e-05
89 *182:60 *187:43 0.000490769
90 *182:91 *902:D 1.252e-05
91 *183:121 *187:47 8.68903e-05
*RES
1 *1054:Q *187:4 23 
2 *187:4 *187:14 38.8036 
3 *187:14 *187:20 41.2243 
4 *187:20 *187:24 30.8671 
5 *187:24 *916:B 23 
6 *187:4 *187:43 39.7093 
7 *187:43 *187:45 15 
8 *187:45 *187:47 27.6121 
9 *187:47 *187:49 2.61 
10 *187:49 *187:55 19.8886 
11 *187:55 *187:59 37.33 
12 *187:59 *919:C 38 
13 *187:55 *923:A3 27.4329 
14 *187:49 *187:79 27.905 
15 *187:79 *187:85 38.2443 
16 *187:85 *920:A2 23 
17 *187:79 *914:A 23.6214 
18 *187:47 *915:B 41.9564 
19 *187:45 *902:D 47.2179 
*END

*D_NET *188 0.0330094
*CONN
*I *970:A I *D sky130_fd_sc_hd__and4_1
*I *953:A1 I *D sky130_fd_sc_hd__a21o_1
*I *949:A I *D sky130_fd_sc_hd__or2_1
*I *906:A I *D sky130_fd_sc_hd__or4_1
*I *950:A I *D sky130_fd_sc_hd__nand2_1
*I *954:A I *D sky130_fd_sc_hd__and3_2
*I *1064:Q O *D sky130_fd_sc_hd__dfrtp_4
*CAP
1 *970:A 0
2 *953:A1 0
3 *949:A 2.28909e-05
4 *906:A 0.000113062
5 *950:A 0
6 *954:A 0
7 *1064:Q 0
8 *188:129 0.00112092
9 *188:121 0.00150012
10 *188:102 0.00089765
11 *188:75 0.000380825
12 *188:71 0.00139739
13 *188:63 0.00127187
14 *188:61 0.000656784
15 *188:40 0.000395271
16 *188:28 0.00108422
17 *188:22 0.0025898
18 *188:14 0.00276189
19 *188:6 0.00106818
20 *906:A *190:28 0.000224773
21 *949:A *196:41 0.000178322
22 *188:14 *205:36 8.08504e-05
23 *188:22 *193:28 0.000253652
24 *188:22 *204:16 0.00010312
25 *188:22 *215:32 0.00050984
26 *188:40 *982:B1 0.000143535
27 *188:40 *196:26 0.000126772
28 *188:63 *196:26 0.000224411
29 *188:63 *196:41 0.00104157
30 *188:71 *189:71 8.18934e-05
31 *188:71 *190:28 0.000573968
32 *188:71 *193:8 0.000101883
33 *188:75 *219:16 0.00118569
34 *188:102 *205:36 9.41704e-05
35 *188:121 *189:18 9.90291e-05
36 *188:121 *200:35 0.000268699
37 *188:121 *210:72 0.000275831
38 *950:B *188:75 0.00118569
39 *954:C *188:40 0
40 *960:B *188:14 0.000318666
41 *994:B1 *188:121 7.86958e-05
42 *1069:RESET_B *949:A 0.000147236
43 *1069:RESET_B *188:71 0.000484538
44 *1074:D *188:22 0.00032327
45 *1074:D *188:28 0
46 *1074:RESET_B *188:61 9.86569e-05
47 *20:32 *188:28 0.000166143
48 *20:32 *188:61 8.9726e-05
49 *45:8 *188:61 5.82853e-05
50 *47:10 *188:22 0
51 *51:18 *188:14 0
52 *51:18 *188:22 0.000327884
53 *51:18 *188:102 0
54 *83:10 *188:102 0.000204129
55 *86:59 *188:22 9.82639e-05
56 *87:44 *188:121 2.05503e-05
57 *91:27 *188:22 0.000137616
58 *91:54 *188:22 0.000540399
59 *95:14 *188:61 0.000104182
60 *103:20 *188:14 0.000361122
61 *103:20 *188:102 0.000371077
62 *109:6 *188:61 0.000162571
63 *118:14 *188:121 1.16512e-05
64 *119:24 *188:61 9.88518e-05
65 *119:24 *188:71 0.000164453
66 *126:37 *188:40 0
67 *126:37 *188:61 6.02049e-05
68 *126:47 *188:63 0.00117156
69 *126:116 *188:129 0.000252576
70 *126:136 *188:102 5.44109e-05
71 *133:60 *188:22 0.000937102
72 *135:24 *906:A 0.000233227
73 *135:24 *188:71 0.00077309
74 *148:29 *188:22 0
75 *149:16 *188:14 3.41998e-06
76 *153:14 *188:22 0
77 *153:14 *188:28 5.94202e-05
78 *154:20 *188:129 0.000753506
79 *162:14 *188:121 6.10809e-05
80 *173:60 *188:63 1.5725e-05
81 *173:60 *188:71 0.000123686
82 *176:59 *188:22 0.00131417
83 *180:99 *188:22 0
84 *183:28 *188:121 2.26406e-05
85 *186:46 *188:102 2.48993e-05
86 *186:46 *188:121 3.21977e-05
87 *186:46 *188:129 0.000733931
*RES
1 *1064:Q *188:6 38 
2 *188:6 *188:14 41.7243 
3 *188:14 *188:22 49.8489 
4 *188:22 *188:28 21.9704 
5 *188:28 *188:40 36.1314 
6 *188:40 *954:A 23 
7 *188:28 *188:61 38.5757 
8 *188:61 *188:63 13.9614 
9 *188:63 *188:71 38.0136 
10 *188:71 *188:75 28.485 
11 *188:75 *950:A 23 
12 *188:71 *906:A 41.3143 
13 *188:63 *949:A 25.0507 
14 *188:6 *188:102 23.9071 
15 *188:102 *953:A1 23 
16 *188:102 *188:121 35.5483 
17 *188:121 *188:129 34.72 
18 *188:129 *970:A 23 
*END

*D_NET *189 0.0276238
*CONN
*I *970:B I *D sky130_fd_sc_hd__and4_1
*I *906:B I *D sky130_fd_sc_hd__or4_1
*I *954:B I *D sky130_fd_sc_hd__and3_2
*I *953:B1 I *D sky130_fd_sc_hd__a21o_1
*I *1065:Q O *D sky130_fd_sc_hd__dfrtp_2
*CAP
1 *970:B 0
2 *906:B 0
3 *954:B 0
4 *953:B1 0
5 *1065:Q 0.000347618
6 *189:73 0.00191011
7 *189:71 0.00334581
8 *189:63 0.00193818
9 *189:61 0.0016327
10 *189:43 0.00232195
11 *189:33 0.00238914
12 *189:18 0.000447072
13 *189:10 0.00164448
14 *189:8 0.000347618
15 *189:8 *901:A1 1.22779e-05
16 *189:8 *197:77 0
17 *189:18 *201:24 4.51815e-05
18 *189:33 *195:22 0.000618037
19 *189:33 *195:28 3.76096e-05
20 *189:33 *200:64 0.00113992
21 *189:33 *208:44 1.47439e-05
22 *189:43 *191:69 6.33017e-05
23 *189:43 *203:98 0
24 *189:61 *191:41 2.51057e-05
25 *189:61 *192:51 0.000484791
26 *189:61 *205:12 6.65013e-06
27 *189:61 *205:26 4.62369e-05
28 *189:63 *906:C 1.13589e-05
29 *189:63 *190:28 0.00011034
30 *189:63 *208:110 0.000461591
31 *189:71 *190:28 0.000720051
32 *189:71 *191:58 0.000112437
33 *189:71 *192:18 0
34 *189:73 *982:A1 2.1819e-05
35 *189:73 *982:B1 0.000411184
36 *189:73 *197:20 6.15457e-06
37 *890:B *189:61 2.24608e-05
38 *917:A *189:61 0.00031951
39 *917:A *189:63 1.23701e-05
40 *994:B1 *189:18 2.00428e-05
41 *1059:RESET_B *189:61 0.000166869
42 *20:173 *189:18 0.000660051
43 *20:173 *189:33 0.000200798
44 *27:24 *189:71 6.10551e-06
45 *28:18 *189:61 0.00015494
46 *54:20 *189:43 0.000223556
47 *80:16 *189:61 0.000121004
48 *84:39 *189:61 0.000129667
49 *85:16 *189:33 0
50 *85:16 *189:43 0
51 *86:20 *189:8 3.87221e-06
52 *86:20 *189:18 0.000748779
53 *86:20 *189:33 0.000133821
54 *86:39 *189:43 3.22939e-05
55 *87:32 *189:18 1.82221e-05
56 *93:108 *189:43 0
57 *93:126 *189:71 0
58 *96:16 *189:61 1.07272e-05
59 *96:16 *189:63 0.000813833
60 *96:37 *189:61 1.78655e-05
61 *103:38 *189:61 0
62 *103:175 *189:61 7.06542e-05
63 *118:14 *189:18 7.44781e-05
64 *126:97 *189:43 0
65 *126:116 *189:33 0
66 *133:34 *189:71 8.19715e-05
67 *133:49 *189:63 1.02133e-05
68 *133:49 *189:71 0.000103686
69 *135:24 *189:63 7.07537e-05
70 *137:48 *189:43 0
71 *137:63 *189:33 0
72 *153:8 *189:73 0.000144494
73 *155:74 *189:43 9.16743e-05
74 *159:24 *189:8 0
75 *167:18 *189:61 0.000165567
76 *173:10 *189:73 0.000481937
77 *181:28 *189:71 0
78 *182:36 *189:43 0.00017801
79 *182:40 *189:43 0.0010055
80 *182:40 *189:61 0.000181251
81 *182:60 *189:43 0.000202621
82 *183:24 *189:18 4.51797e-05
83 *185:23 *189:33 0
84 *185:23 *189:61 4.45778e-05
85 *188:71 *189:71 8.18934e-05
86 *188:121 *189:18 9.90291e-05
*RES
1 *1065:Q *189:8 42.5468 
2 *189:8 *189:10 8 
3 *189:10 *189:18 27.9202 
4 *189:18 *953:B1 23 
5 *189:10 *189:33 15.8507 
6 *189:33 *189:43 38.3657 
7 *189:43 *189:61 47.15 
8 *189:61 *189:63 12.6461 
9 *189:63 *189:71 40.7375 
10 *189:71 *189:73 28.0161 
11 *189:73 *954:B 23 
12 *189:63 *906:B 38 
13 *189:33 *970:B 38 
*END

*D_NET *190 0.0171415
*CONN
*I *905:C I *D sky130_fd_sc_hd__and4_1
*I *958:A I *D sky130_fd_sc_hd__nor2_1
*I *959:A I *D sky130_fd_sc_hd__and2_1
*I *965:A1 I *D sky130_fd_sc_hd__a31o_1
*I *1066:Q O *D sky130_fd_sc_hd__dfrtp_1
*CAP
1 *905:C 0.000169012
2 *958:A 0
3 *959:A 0.000111624
4 *965:A1 0
5 *1066:Q 0.000116959
6 *190:52 4.50948e-05
7 *190:46 0.0031253
8 *190:44 0.00308021
9 *190:28 0.000481613
10 *190:20 0.00142846
11 *190:14 0.00129092
12 *190:8 0.000741674
13 *905:C *905:D 5.58473e-05
14 *905:C *193:22 5.3304e-05
15 *190:14 *220:10 1.0092e-05
16 *190:20 *906:C 5.11621e-05
17 *190:20 *220:10 0.000493567
18 *190:28 *965:B1 5.58003e-05
19 *190:28 *218:10 1.47709e-05
20 *190:28 *220:31 4.96207e-05
21 *190:46 *208:8 8.06804e-06
22 *190:46 *214:10 0.000201184
23 *190:46 *214:31 0.000311705
24 *906:A *190:28 0.000224773
25 *1013:A *190:46 0.000410794
26 *1053:CLK *190:46 9.91824e-05
27 *1073:RESET_B *190:14 9.1463e-05
28 *20:50 *190:20 9.43343e-05
29 *20:58 *190:46 9.26746e-05
30 *20:66 *190:46 2.94279e-05
31 *20:82 *190:14 2.31434e-05
32 *20:119 *190:14 2.1883e-05
33 *35:10 *190:52 5.36496e-06
34 *64:10 *190:14 2.84641e-05
35 *67:10 *905:C 2.64616e-05
36 *73:16 *190:52 0.000143432
37 *79:28 *905:C 0.000254389
38 *79:28 *190:14 0.000111106
39 *97:8 *959:A 3.65917e-05
40 *97:8 *190:20 0.000327999
41 *131:28 *190:52 0.000129039
42 *133:49 *959:A 0.000196073
43 *133:49 *190:20 0.000175903
44 *135:24 *190:28 9.23705e-06
45 *137:8 *959:A 2.45549e-06
46 *177:12 *190:20 0.000566479
47 *178:14 *905:C 0.000154846
48 *178:14 *190:14 0.000181289
49 *181:100 *190:8 7.48414e-05
50 *184:103 *190:14 0.000197187
51 *184:103 *190:20 0.000132342
52 *188:71 *190:28 0.000573968
53 *189:63 *190:28 0.00011034
54 *189:71 *190:28 0.000720051
*RES
1 *1066:Q *190:8 39.5743 
2 *190:8 *190:14 9.36286 
3 *190:14 *190:20 34.2436 
4 *190:20 *190:28 42.8636 
5 *190:28 *965:A1 23 
6 *190:20 *959:A 25.5479 
7 *190:14 *190:44 15 
8 *190:44 *190:46 37.7829 
9 *190:46 *190:52 31.9057 
10 *190:52 *958:A 23 
11 *190:8 *905:C 42.2879 
*END

*D_NET *191 0.0358249
*CONN
*I *966:B I *D sky130_fd_sc_hd__nand3_1
*I *907:B I *D sky130_fd_sc_hd__and4b_1
*I *905:D I *D sky130_fd_sc_hd__and4_1
*I *965:A2 I *D sky130_fd_sc_hd__a31o_1
*I *961:A I *D sky130_fd_sc_hd__or2_1
*I *962:A I *D sky130_fd_sc_hd__nand2_1
*I *1067:Q O *D sky130_fd_sc_hd__dfrtp_4
*CAP
1 *966:B 7.30444e-05
2 *907:B 0
3 *905:D 0.000311918
4 *965:A2 0
5 *961:A 0.00188569
6 *962:A 9.2109e-05
7 *1067:Q 0.000727699
8 *191:105 0.000762943
9 *191:94 0.000687212
10 *191:86 0.00176797
11 *191:69 0.00181708
12 *191:58 0.000160905
13 *191:43 0.00227103
14 *191:41 0.00150165
15 *191:33 0.0018848
16 *191:22 0.000886574
17 *191:8 0.00202889
18 *905:D *193:22 5.3304e-05
19 *905:D *203:48 0.000342364
20 *961:A *203:12 0.00015658
21 *191:22 *209:66 0.00017382
22 *191:22 *214:70 0.000223445
23 *191:33 *214:70 0.000443176
24 *191:41 *192:35 0.000282358
25 *191:41 *214:70 0.000338701
26 *191:69 *194:29 0.00115121
27 *191:86 *203:48 0.000234452
28 *191:94 *197:55 2.18286e-05
29 *191:94 *204:26 0.000185325
30 *905:C *905:D 5.58473e-05
31 *917:A *191:41 0.000461782
32 *924:C *962:A 0.000262574
33 *924:C *191:22 0.000124306
34 *943:A *191:69 0.000180843
35 *948:A *191:86 0.000314147
36 *966:C *966:B 5.3304e-05
37 *1053:RESET_B *191:94 1.40759e-05
38 *1067:CLK *191:22 5.12254e-05
39 *1067:D *191:22 4.27486e-05
40 *1077:CLK *191:94 5.56279e-05
41 *1077:RESET_B *191:94 0.000224649
42 *37:14 *961:A 6.59263e-05
43 *51:18 *191:86 0.000185843
44 *55:10 *191:105 2.85501e-06
45 *79:28 *905:D 1.418e-05
46 *91:54 *191:94 0.000707917
47 *103:175 *191:41 6.85548e-05
48 *112:56 *191:86 0.00047908
49 *115:24 *191:105 0.000333805
50 *133:34 *191:58 1.05441e-05
51 *133:49 *191:58 0.000254171
52 *135:24 *191:41 0.00115858
53 *137:14 *191:41 8.62876e-05
54 *137:31 *962:A 8.264e-05
55 *137:31 *191:22 0.00012599
56 *137:31 *191:41 0.000828906
57 *137:33 *962:A 0.000179934
58 *138:14 *961:A 0.000527807
59 *138:14 *191:43 0.000250475
60 *140:26 *191:94 5.069e-05
61 *142:16 *191:105 0.00133435
62 *143:6 *191:86 0.00113232
63 *155:74 *191:69 0.00036843
64 *162:14 *191:86 6.15195e-05
65 *165:8 *191:94 4.56101e-05
66 *165:12 *191:94 0.000954413
67 *165:29 *191:22 2.02872e-05
68 *166:53 *961:A 0.00098634
69 *167:18 *191:33 0.000433032
70 *167:18 *191:41 0.000506363
71 *176:141 *191:105 0.00057769
72 *178:14 *905:D 0.000253972
73 *178:59 *905:D 0.000186532
74 *178:59 *191:86 0.000225238
75 *180:43 *191:94 2.37243e-05
76 *180:45 *191:94 1.57352e-05
77 *181:20 *191:41 4.08901e-05
78 *182:85 *966:B 0.000136743
79 *183:111 *191:41 0.00059948
80 *189:43 *191:69 6.33017e-05
81 *189:61 *191:41 2.51057e-05
82 *189:71 *191:58 0.000112437
*RES
1 *1067:Q *191:8 31.265 
2 *191:8 *191:22 40.3157 
3 *191:22 *962:A 26.0036 
4 *191:22 *191:33 21.1314 
5 *191:33 *191:41 48.3086 
6 *191:41 *191:43 3.00357 
7 *191:43 *961:A 49.1207 
8 *191:43 *191:58 33.6664 
9 *191:58 *965:A2 23 
10 *191:33 *191:69 43.0086 
11 *191:69 *905:D 44.7529 
12 *191:69 *191:86 42.7571 
13 *191:86 *191:94 49.9271 
14 *191:94 *907:B 23 
15 *191:8 *191:105 48.8086 
16 *191:105 *966:B 24.5743 
*END

*D_NET *192 0.0361228
*CONN
*I *966:A I *D sky130_fd_sc_hd__nand3_1
*I *907:C I *D sky130_fd_sc_hd__and4b_1
*I *905:B I *D sky130_fd_sc_hd__and4_1
*I *965:B1 I *D sky130_fd_sc_hd__a31o_1
*I *1068:Q O *D sky130_fd_sc_hd__dfrtp_2
*CAP
1 *966:A 0
2 *907:C 0
3 *905:B 0.000189446
4 *965:B1 0.000100712
5 *1068:Q 0.000658916
6 *192:121 0.000377691
7 *192:115 0.00131875
8 *192:96 0.00160567
9 *192:86 0.00293343
10 *192:82 0.001004
11 *192:61 0.000806745
12 *192:59 0.00109469
13 *192:51 0.00146903
14 *192:41 0.00130634
15 *192:35 0.0013907
16 *192:18 0.00074094
17 *192:16 0.00122827
18 *192:10 0.00170566
19 *905:B *193:22 2.18409e-05
20 *965:B1 *218:10 0.000117078
21 *965:B1 *220:31 5.41195e-05
22 *192:41 *214:62 0.000477694
23 *192:82 *214:82 6.63691e-05
24 *192:86 *197:33 0.000355721
25 *192:96 *197:41 0.000221665
26 *192:96 *197:55 0.00106289
27 *192:96 *205:36 3.34932e-05
28 *909:A2 *905:B 1.18939e-05
29 *950:B *192:35 0.000175903
30 *1033:A *192:115 0.00012612
31 *1059:RESET_B *192:59 0
32 *1068:RESET_B *192:10 0.000270337
33 *1071:RESET_B *192:121 0.000478862
34 *1077:D *192:96 3.18192e-05
35 *1077:RESET_B *192:96 0.000811834
36 *1093:A *192:41 0.000298503
37 *20:152 *192:86 6.99132e-06
38 *21:18 *192:115 0.000280443
39 *23:24 *192:115 0.000364336
40 *26:24 *192:10 8.36198e-05
41 *27:24 *192:18 1.05658e-05
42 *28:18 *192:59 0.000222668
43 *30:12 *192:86 0.000117355
44 *67:10 *905:B 9.41704e-05
45 *67:16 *905:B 0.000239243
46 *67:16 *192:82 0.000889512
47 *67:16 *192:86 0.000274179
48 *68:14 *192:41 5.85822e-06
49 *83:18 *192:96 2.05503e-05
50 *85:16 *192:115 4.30894e-05
51 *95:55 *905:B 0.000190561
52 *96:12 *192:51 0.000137096
53 *96:16 *192:51 0.000484962
54 *96:37 *192:51 1.01436e-05
55 *101:18 *192:96 8.35126e-06
56 *101:18 *192:115 9.57544e-05
57 *102:45 *192:96 0.00131656
58 *102:45 *192:115 0.000547035
59 *108:18 *192:10 1.94812e-05
60 *112:130 *192:121 0
61 *114:20 *192:59 0.000302618
62 *115:24 *192:121 0.000270425
63 *119:6 *192:16 0.00135604
64 *119:24 *192:16 0.000141352
65 *119:37 *192:41 0.000605349
66 *119:45 *192:41 0.000557296
67 *120:14 *192:82 9.41704e-05
68 *135:16 *905:B 1.22906e-05
69 *135:24 *192:18 7.61231e-05
70 *135:24 *192:35 0.000120002
71 *140:10 *192:41 9.48043e-05
72 *160:18 *192:41 0.000227676
73 *176:114 *192:59 7.15126e-05
74 *176:118 *192:59 0.000209576
75 *176:135 *192:115 0.000222046
76 *176:170 *192:121 2.75733e-06
77 *178:14 *905:B 2.08013e-05
78 *178:59 *905:B 3.73731e-05
79 *178:59 *192:82 0.000312987
80 *181:18 *192:41 3.52741e-05
81 *181:20 *192:18 0.000194747
82 *181:20 *192:35 0.000556678
83 *181:28 *192:18 6.12484e-05
84 *182:60 *192:115 0.000316338
85 *185:27 *192:51 0.00017761
86 *186:18 *192:86 9.75598e-06
87 *186:40 *192:86 3.13417e-05
88 *187:43 *192:115 0.00117206
89 *189:61 *192:51 0.000484791
90 *189:71 *192:18 0
91 *190:28 *965:B1 5.58003e-05
92 *191:41 *192:35 0.000282358
*RES
1 *1068:Q *192:10 47.4457 
2 *192:10 *192:16 46.3436 
3 *192:16 *192:18 3.66643 
4 *192:18 *965:B1 40.5271 
5 *192:18 *192:35 39.9429 
6 *192:35 *192:41 35.4243 
7 *192:41 *192:51 39.3836 
8 *192:51 *192:59 45.4736 
9 *192:59 *192:61 15 
10 *192:61 *905:B 43.2614 
11 *192:61 *192:82 43.92 
12 *192:82 *192:86 16.0682 
13 *192:86 *192:96 37.9497 
14 *192:96 *907:C 23 
15 *192:86 *192:115 41.3548 
16 *192:115 *192:121 38.5964 
17 *192:121 *966:A 23 
*END

*D_NET *193 0.0179443
*CONN
*I *905:A I *D sky130_fd_sc_hd__and4_1
*I *969:A I *D sky130_fd_sc_hd__inv_2
*I *907:D I *D sky130_fd_sc_hd__and4b_1
*I *1069:Q O *D sky130_fd_sc_hd__dfrtp_1
*CAP
1 *905:A 0
2 *969:A 0
3 *907:D 1.421e-05
4 *1069:Q 0.000143382
5 *193:36 0.00106622
6 *193:30 0.00105201
7 *193:28 0.000903529
8 *193:22 0.00122498
9 *193:16 0.00196544
10 *193:8 0.00178738
11 *193:16 *203:20 0.00078847
12 *193:16 *203:34 0.000797318
13 *193:16 *204:43 0
14 *193:16 *205:55 8.61037e-06
15 *193:28 *212:37 0.00177887
16 *193:36 *203:54 4.51797e-05
17 *193:36 *215:14 0.00161028
18 *905:B *193:22 2.18409e-05
19 *905:C *193:22 5.3304e-05
20 *905:D *193:22 5.3304e-05
21 *909:A2 *193:28 0.000332873
22 *949:B *193:16 2.05503e-05
23 *1077:RESET_B *907:D 1.16872e-05
24 *48:20 *193:36 0
25 *59:18 *193:36 5.63118e-05
26 *64:10 *193:16 4.35173e-05
27 *67:10 *193:22 2.62948e-05
28 *84:39 *193:36 6.70361e-05
29 *91:54 *193:28 0.000255884
30 *93:126 *193:16 0
31 *95:55 *193:22 5.67058e-05
32 *95:55 *193:28 5.50106e-05
33 *96:12 *193:22 0.000135037
34 *129:10 *193:16 2.07642e-05
35 *134:12 *193:36 0.000571963
36 *134:18 *193:36 0.000410838
37 *138:14 *193:16 9.23092e-06
38 *141:22 *193:16 0.000655561
39 *158:18 *193:16 0.000290705
40 *165:8 *907:D 1.16872e-05
41 *173:60 *193:16 0.000153564
42 *175:137 *193:16 9.01946e-05
43 *176:65 *193:28 7.14493e-05
44 *176:82 *193:28 0.0003468
45 *176:89 *193:28 0.00032817
46 *176:114 *193:28 0.000252634
47 *177:12 *193:16 0
48 *188:22 *193:28 0.000253652
49 *188:71 *193:8 0.000101883
*RES
1 *1069:Q *193:8 40.0507 
2 *193:8 *193:16 47.9564 
3 *193:16 *193:22 5.075 
4 *193:22 *193:28 40.7271 
5 *193:28 *193:30 15 
6 *193:30 *193:36 41.7629 
7 *193:36 *907:D 38.2745 
8 *193:30 *969:A 23 
9 *193:22 *905:A 23 
*END

*D_NET *194 0.0389425
*CONN
*I *908:B I *D sky130_fd_sc_hd__and4b_1
*I *973:A I *D sky130_fd_sc_hd__or2_1
*I *980:B I *D sky130_fd_sc_hd__and3_1
*I *974:A I *D sky130_fd_sc_hd__nand2_2
*I *982:A3 I *D sky130_fd_sc_hd__a41o_1
*I *983:D I *D sky130_fd_sc_hd__and4_1
*I *1070:Q O *D sky130_fd_sc_hd__dfrtp_4
*CAP
1 *908:B 0.000354771
2 *973:A 0
3 *980:B 0.000145917
4 *974:A 0.000116748
5 *982:A3 3.16967e-05
6 *983:D 0
7 *1070:Q 0
8 *194:95 0.000880299
9 *194:71 0.000869341
10 *194:61 0.00125472
11 *194:57 0.0014946
12 *194:49 0.00127009
13 *194:39 0.0013256
14 *194:31 0.000870174
15 *194:29 0.00464809
16 *194:27 0.00474597
17 *194:16 0.000744065
18 *194:10 0.00125094
19 *194:4 0.000604743
20 *908:B *908:A_N 0.000397113
21 *908:B *196:62 0.00030206
22 *908:B *200:18 0.000465482
23 *908:B *213:39 9.21347e-06
24 *194:10 *214:130 0.000223698
25 *194:16 *196:133 0.000263534
26 *194:16 *207:43 0.00125386
27 *194:39 *200:18 0.000432865
28 *194:49 *212:25 0.000987006
29 *194:57 *204:16 0.00030822
30 *194:57 *214:10 0.000135527
31 *194:61 *204:16 0.000474997
32 *194:61 *214:10 0.000213336
33 *194:71 *201:56 3.47877e-05
34 *194:71 *222:12 0
35 *194:95 *195:73 3.27534e-05
36 *194:95 *201:50 0.000779186
37 *889:B *194:71 0.000189448
38 *943:A *194:29 0.000536702
39 *971:A *194:10 5.42593e-05
40 *991:A *194:71 1.14452e-05
41 *33:8 *194:71 8.71791e-05
42 *35:10 *194:49 0.000907735
43 *37:14 *974:A 0.000298423
44 *37:14 *194:71 0.000477346
45 *45:10 *194:95 3.35885e-06
46 *53:22 *194:71 0.000387147
47 *55:10 *194:27 3.04021e-05
48 *65:10 *194:27 2.73782e-05
49 *80:16 *908:B 0
50 *84:60 *194:16 0.0019263
51 *90:20 *194:10 0.000281579
52 *94:37 *908:B 0.000247687
53 *94:37 *194:39 0.000428402
54 *95:61 *194:10 0.000472128
55 *97:8 *980:B 0.000180224
56 *100:6 *194:39 3.61365e-05
57 *103:102 *194:95 8.50457e-05
58 *110:12 *194:16 0.000641302
59 *139:14 *194:27 0.000161814
60 *146:78 *194:49 0.000137651
61 *146:90 *982:A3 2.93747e-05
62 *146:90 *194:71 0.000410819
63 *146:103 *974:A 0.000102465
64 *146:103 *194:71 0.000231654
65 *147:6 *194:57 0.000106916
66 *154:10 *194:16 0.000351445
67 *154:52 *908:B 1.01436e-05
68 *155:10 *908:B 5.26709e-05
69 *155:37 *194:29 0.000392722
70 *155:39 *194:29 0.000207284
71 *155:74 *194:29 8.86951e-05
72 *167:32 *194:49 0.000263417
73 *170:8 *194:49 0.00014478
74 *170:8 *194:57 0.000554156
75 *176:40 *194:95 7.06552e-05
76 *180:99 *194:29 0.000146822
77 *183:121 *194:10 9.67842e-05
78 *191:69 *194:29 0.00115121
*RES
1 *1070:Q *194:4 23 
2 *194:4 *194:10 26.1236 
3 *194:10 *194:16 44.8079 
4 *194:16 *983:D 23 
5 *194:4 *194:27 32.2579 
6 *194:27 *194:29 58.2693 
7 *194:29 *194:31 15 
8 *194:31 *194:39 40.2121 
9 *194:39 *194:49 37.0193 
10 *194:49 *194:57 26.2064 
11 *194:57 *194:61 21.8357 
12 *194:61 *194:71 35.3 
13 *194:71 *982:A3 38.6214 
14 *194:61 *974:A 26.48 
15 *194:57 *194:95 40.875 
16 *194:95 *980:B 40.0507 
17 *194:49 *973:A 23 
18 *194:31 *908:B 48.9164 
*END

*D_NET *195 0.0481794
*CONN
*I *983:C I *D sky130_fd_sc_hd__and4_1
*I *901:A2 I *D sky130_fd_sc_hd__a21o_1
*I *908:A_N I *D sky130_fd_sc_hd__and4b_1
*I *980:A I *D sky130_fd_sc_hd__and3_1
*I *979:B I *D sky130_fd_sc_hd__nand2_1
*I *982:A2 I *D sky130_fd_sc_hd__a41o_1
*I *977:A I *D sky130_fd_sc_hd__xor2_1
*I *1071:Q O *D sky130_fd_sc_hd__dfrtp_4
*CAP
1 *983:C 0
2 *901:A2 5.3118e-05
3 *908:A_N 0.000519422
4 *980:A 0
5 *979:B 0
6 *982:A2 0
7 *977:A 0.000980277
8 *1071:Q 4.63765e-05
9 *195:158 0.00049948
10 *195:126 0.00214294
11 *195:104 0.000504019
12 *195:89 7.99533e-05
13 *195:83 0.00208622
14 *195:73 0.00380522
15 *195:63 0.00365411
16 *195:53 0.00567428
17 *195:28 0.0033324
18 *195:22 0.00245691
19 *195:12 0.00267225
20 *195:8 0.000475887
21 *901:A2 *197:64 6.85548e-05
22 *901:A2 *197:77 9.28078e-06
23 *908:A_N *196:62 6.51843e-05
24 *977:A *200:35 2.19404e-05
25 *977:A *208:65 5.50381e-06
26 *195:12 *206:65 0.000883188
27 *195:22 *196:108 0.000267667
28 *195:22 *200:64 0.000675007
29 *195:22 *208:44 0.000571566
30 *195:22 *210:72 0.00179682
31 *195:28 *901:A1 8.79027e-05
32 *195:28 *196:108 4.10005e-05
33 *195:53 *201:24 0.00130845
34 *195:73 *196:16 0.000122874
35 *195:73 *199:18 0.000120153
36 *195:73 *211:14 9.45396e-05
37 *195:73 *213:28 0.000218823
38 *195:83 *197:20 0
39 *195:83 *222:16 0.00196789
40 *195:89 *222:12 0
41 *195:158 *197:87 0.000155594
42 *195:158 *207:43 2.26406e-05
43 *195:158 *210:72 0.000175967
44 *902:D *195:12 4.74024e-05
45 *904:B *195:104 0.000234542
46 *908:B *908:A_N 0.000397113
47 *984:A *908:A_N 0.000471505
48 *1006:C *195:104 3.30808e-05
49 *1060:D *195:12 0.000321842
50 *1079:RESET_B *195:73 0.000300867
51 *20:18 *195:73 0
52 *20:18 *195:83 0
53 *20:173 *195:28 0.000438009
54 *20:187 *977:A 6.37194e-06
55 *30:12 *901:A2 0
56 *45:10 *195:63 4.51797e-05
57 *45:10 *195:73 0.000162656
58 *47:20 *195:126 0.000118939
59 *47:20 *195:158 0
60 *54:20 *195:126 0.000241409
61 *63:18 *195:73 0
62 *70:16 *195:63 4.40029e-05
63 *76:14 *195:63 9.59047e-05
64 *80:16 *195:126 0.000208184
65 *82:10 *195:22 0
66 *84:60 *195:158 2.05503e-05
67 *85:16 *195:22 0
68 *86:20 *977:A 2.46318e-06
69 *86:93 *195:12 7.16228e-05
70 *87:12 *977:A 7.54015e-06
71 *87:32 *977:A 0.000173037
72 *87:32 *195:28 0.000105186
73 *87:65 *195:126 0.000397964
74 *92:8 *195:28 0.000109935
75 *92:14 *977:A 4.9662e-05
76 *93:94 *977:A 4.19867e-05
77 *93:126 *195:104 3.22051e-05
78 *95:8 *195:104 0.000405649
79 *95:14 *195:104 0.000489661
80 *99:10 *908:A_N 0.000649603
81 *101:10 *195:12 0.000212986
82 *101:10 *195:158 9.58714e-05
83 *103:102 *195:73 1.21513e-05
84 *103:130 *195:104 0.000258772
85 *109:6 *195:104 0.00011505
86 *111:14 *195:158 9.5876e-06
87 *116:34 *195:22 0.000118729
88 *117:76 *977:A 4.36436e-05
89 *123:14 *195:158 3.87221e-06
90 *126:37 *195:83 0
91 *146:51 *908:A_N 9.41704e-05
92 *152:14 *195:73 9.6288e-05
93 *152:26 *195:53 0.000868137
94 *152:26 *195:63 0.000556305
95 *154:10 *195:158 3.59635e-05
96 *155:10 *908:A_N 2.43944e-05
97 *162:38 *195:63 1.24585e-05
98 *162:38 *195:73 1.17256e-05
99 *166:65 *195:73 0.000286845
100 *171:12 *195:73 7.16531e-06
101 *171:24 *977:A 0.000117898
102 *171:24 *195:28 0.000174752
103 *175:115 *977:A 2.31116e-05
104 *177:20 *195:126 0.000395349
105 *184:54 *195:73 0.000397759
106 *186:29 *195:83 4.32098e-05
107 *187:47 *195:12 8.73018e-05
108 *189:33 *195:22 0.000618037
109 *189:33 *195:28 3.76096e-05
110 *194:95 *195:73 3.27534e-05
*RES
1 *1071:Q *195:8 38.6214 
2 *195:8 *195:12 20.2939 
3 *195:12 *195:22 25.3598 
4 *195:22 *195:28 1.96933 
5 *195:28 *977:A 49.4273 
6 *195:28 *195:53 13.2901 
7 *195:53 *195:63 21.3567 
8 *195:63 *195:73 34.6314 
9 *195:73 *195:83 46.2371 
10 *195:83 *195:89 31.2014 
11 *195:89 *982:A2 23 
12 *195:73 *195:104 29.6243 
13 *195:104 *979:B 23 
14 *195:63 *980:A 38 
15 *195:53 *195:126 39.8792 
16 *195:126 *908:A_N 36.485 
17 *195:22 *901:A2 47.0254 
18 *195:12 *195:158 43.7541 
19 *195:158 *983:C 38 
*END

*D_NET *196 0.0423093
*CONN
*I *983:B I *D sky130_fd_sc_hd__and4_1
*I *981:B2 I *D sky130_fd_sc_hd__o221a_1
*I *901:A1 I *D sky130_fd_sc_hd__a21o_1
*I *908:D I *D sky130_fd_sc_hd__and4b_1
*I *979:A I *D sky130_fd_sc_hd__nand2_1
*I *982:A1 I *D sky130_fd_sc_hd__a41o_1
*I *1072:Q O *D sky130_fd_sc_hd__dfrtp_4
*CAP
1 *983:B 0
2 *981:B2 0.000136932
3 *901:A1 0.0001981
4 *908:D 0
5 *979:A 0
6 *982:A1 0.000192123
7 *1072:Q 0
8 *196:133 0.00107162
9 *196:108 0.00262547
10 *196:89 0.00283246
11 *196:62 0.000877328
12 *196:52 0.00220812
13 *196:41 0.00118946
14 *196:26 0.00116716
15 *196:18 0.0021645
16 *196:16 0.00212225
17 *196:10 0.0037868
18 *196:4 0.0015512
19 *901:A1 *901:B1 5.11621e-05
20 *901:A1 *197:64 1.91026e-05
21 *982:A1 *982:B1 0.00114411
22 *196:10 *198:33 1.21972e-05
23 *196:10 *214:96 2.11066e-05
24 *196:16 *211:14 0
25 *196:62 *204:26 0.000191628
26 *196:89 *198:33 0.000164073
27 *196:89 *202:24 0.00012361
28 *196:108 *208:44 0.0018079
29 *196:133 *910:D 9.41704e-05
30 *196:133 *200:64 7.16015e-05
31 *196:133 *202:51 0.00026025
32 *196:133 *208:44 0.000323624
33 *908:A_N *196:62 6.51843e-05
34 *908:B *196:62 0.00030206
35 *949:A *196:41 0.000178322
36 *949:B *196:41 5.79559e-05
37 *984:A *196:62 0.000471505
38 *1056:CLK *196:16 0.000335611
39 *1066:CLK *196:16 5.91105e-05
40 *1069:RESET_B *196:41 8.83763e-05
41 *1079:RESET_B *196:26 2.69681e-05
42 *11:21 *196:16 0.000105454
43 *25:6 *196:10 2.64616e-05
44 *25:6 *196:89 4.05496e-05
45 *27:24 *196:89 0.000103742
46 *46:10 *196:16 0.000604253
47 *49:26 *196:89 0.000176747
48 *62:22 *196:62 0.000124959
49 *63:18 *196:16 0.00180607
50 *76:10 *196:16 2.33476e-05
51 *93:8 *196:133 0.000140343
52 *93:20 *196:133 5.40396e-05
53 *93:126 *196:41 4.62237e-05
54 *94:50 *196:41 0
55 *109:12 *196:26 0
56 *112:52 *196:16 0.00041104
57 *112:71 *196:10 0.00054392
58 *112:71 *196:16 0.00022399
59 *112:130 *981:B2 1.41944e-05
60 *112:130 *196:133 0
61 *115:24 *981:B2 3.00339e-05
62 *117:47 *196:89 3.71712e-05
63 *119:24 *196:41 2.05503e-05
64 *122:20 *196:89 2.95263e-05
65 *124:10 *196:10 0.000163547
66 *124:10 *196:16 0.000191195
67 *126:16 *982:A1 7.42621e-05
68 *126:47 *196:26 4.53082e-05
69 *142:50 *196:89 6.56284e-05
70 *145:10 *196:133 4.1196e-05
71 *146:38 *196:52 0.00165854
72 *146:51 *196:62 0.000142238
73 *148:60 *981:B2 1.05441e-05
74 *151:12 *196:41 2.26406e-05
75 *151:24 *981:B2 9.52777e-06
76 *151:24 *196:89 0
77 *151:24 *196:108 0.000445881
78 *152:26 *901:A1 5.89766e-06
79 *152:26 *981:B2 1.05441e-05
80 *152:26 *196:108 0.000266992
81 *152:26 *196:133 2.28839e-05
82 *153:8 *982:A1 0.00101336
83 *153:14 *196:26 0.000297418
84 *154:10 *196:133 1.41129e-05
85 *155:10 *196:62 0.000259508
86 *159:24 *196:10 6.2088e-05
87 *159:24 *196:16 0.000108735
88 *171:24 *901:A1 8.78319e-07
89 *171:24 *196:89 0.00100522
90 *173:18 *196:26 1.96195e-05
91 *174:8 *196:16 0.000168813
92 *175:80 *196:62 0.000134374
93 *176:141 *981:B2 0
94 *176:153 *196:108 0.000106671
95 *176:170 *981:B2 6.97359e-05
96 *182:91 *196:133 0.000144923
97 *183:77 *196:16 1.09942e-05
98 *184:33 *196:26 2.05503e-05
99 *184:54 *196:16 0.000421893
100 *184:88 *196:89 0.000507976
101 *188:40 *196:26 0.000126772
102 *188:63 *196:26 0.000224411
103 *188:63 *196:41 0.00104157
104 *189:8 *901:A1 1.22779e-05
105 *189:73 *982:A1 2.1819e-05
106 *194:16 *196:133 0.000263534
107 *195:22 *196:108 0.000267667
108 *195:28 *901:A1 8.79027e-05
109 *195:28 *196:108 4.10005e-05
110 *195:73 *196:16 0.000122874
*RES
1 *1072:Q *196:4 23 
2 *196:4 *196:10 23.1614 
3 *196:10 *196:16 48.2229 
4 *196:16 *196:18 15 
5 *196:18 *196:26 43.92 
6 *196:26 *982:A1 36.0086 
7 *196:18 *196:41 47.7729 
8 *196:41 *979:A 23 
9 *196:10 *196:52 48.7257 
10 *196:52 *196:62 31.8563 
11 *196:62 *908:D 23 
12 *196:4 *196:89 48.1133 
13 *196:89 *901:A1 47.9559 
14 *196:89 *196:108 4.8328 
15 *196:108 *981:B2 48.7861 
16 *196:108 *196:133 39.0789 
17 *196:133 *983:B 23 
*END

*D_NET *197 0.0351289
*CONN
*I *983:A I *D sky130_fd_sc_hd__and4_1
*I *901:B1 I *D sky130_fd_sc_hd__a21o_1
*I *907:A_N I *D sky130_fd_sc_hd__and4b_1
*I *982:B1 I *D sky130_fd_sc_hd__a41o_1
*I *1073:Q O *D sky130_fd_sc_hd__dfrtp_2
*CAP
1 *983:A 0
2 *901:B1 3.56933e-05
3 *907:A_N 0
4 *982:B1 0.000881001
5 *1073:Q 4.3417e-05
6 *197:87 0.000597109
7 *197:79 0.00314132
8 *197:77 0.00286547
9 *197:64 0.000799822
10 *197:55 0.00129166
11 *197:41 0.002114
12 *197:33 0.00186107
13 *197:20 0.00259847
14 *197:8 0.00324249
15 *197:33 *940:A 0.000312315
16 *197:33 *212:37 8.04817e-05
17 *197:87 *208:44 0
18 *895:A2 *901:B1 9.73664e-05
19 *901:A1 *901:B1 5.11621e-05
20 *901:A1 *197:64 1.91026e-05
21 *901:A2 *197:64 6.85548e-05
22 *901:A2 *197:77 9.28078e-06
23 *954:C *982:B1 0.000187976
24 *982:A1 *982:B1 0.00114411
25 *1010:A *197:20 3.22879e-05
26 *1010:B *197:20 9.56814e-05
27 *1073:RESET_B *197:8 5.56279e-05
28 *1077:CLK *197:55 0.000262574
29 *1077:RESET_B *197:55 1.21972e-05
30 *20:152 *197:33 0.000558638
31 *20:173 *197:64 0.000491239
32 *27:8 *197:64 4.27516e-05
33 *27:24 *197:41 0.000240272
34 *30:6 *197:79 0.00175941
35 *30:12 *197:64 0
36 *30:12 *197:77 0
37 *36:24 *197:33 4.51815e-05
38 *47:20 *197:87 0
39 *51:18 *197:55 4.85776e-05
40 *67:16 *197:33 0.000141553
41 *71:26 *197:79 4.17869e-05
42 *83:10 *197:55 1.03203e-05
43 *88:10 *197:87 0
44 *95:21 *197:20 0.000350407
45 *95:21 *197:33 6.81753e-05
46 *101:18 *197:41 0.000256201
47 *101:18 *197:55 0.00144927
48 *102:45 *197:55 8.66883e-05
49 *103:66 *197:20 0.000711213
50 *103:130 *197:20 0.00012991
51 *112:96 *197:33 4.82958e-05
52 *116:14 *197:87 0
53 *135:16 *197:33 0.000922345
54 *142:32 *197:33 0.000282179
55 *152:26 *197:79 0.000233846
56 *154:10 *197:87 0.000230872
57 *155:51 *197:33 0.000713953
58 *155:51 *197:41 0.000237074
59 *165:8 *197:55 5.3304e-05
60 *169:14 *197:33 0
61 *173:10 *197:20 1.59019e-05
62 *176:153 *197:79 2.4754e-05
63 *176:170 *197:79 6.93345e-05
64 *184:88 *197:64 0.000336439
65 *185:66 *197:20 0.000838918
66 *185:66 *197:33 0.000211313
67 *185:90 *197:87 0
68 *186:18 *197:33 0.000200016
69 *188:40 *982:B1 0.000143535
70 *189:8 *197:77 0
71 *189:73 *982:B1 0.000411184
72 *189:73 *197:20 6.15457e-06
73 *191:94 *197:55 2.18286e-05
74 *192:86 *197:33 0.000355721
75 *192:96 *197:41 0.000221665
76 *192:96 *197:55 0.00106289
77 *195:83 *197:20 0
78 *195:158 *197:87 0.000155594
*RES
1 *1073:Q *197:8 38.6214 
2 *197:8 *197:20 48.0704 
3 *197:20 *982:B1 47.2046 
4 *197:8 *197:33 42.93 
5 *197:33 *197:41 17.2189 
6 *197:41 *197:55 31.5994 
7 *197:55 *907:A_N 23 
8 *197:41 *197:64 16.7725 
9 *197:64 *901:B1 39.0979 
10 *197:64 *197:77 19.0186 
11 *197:77 *197:79 37.7829 
12 *197:79 *197:87 41.4757 
13 *197:87 *983:A 23 
*END

*D_NET *198 0.0317866
*CONN
*I *902:C I *D sky130_fd_sc_hd__and4_4
*I *915:A I *D sky130_fd_sc_hd__nand2_1
*I *920:A1 I *D sky130_fd_sc_hd__a21o_1
*I *923:A2 I *D sky130_fd_sc_hd__a31o_1
*I *919:B I *D sky130_fd_sc_hd__nand3_1
*I *916:A I *D sky130_fd_sc_hd__or2_1
*I *1055:Q O *D sky130_fd_sc_hd__dfrtp_4
*CAP
1 *902:C 0
2 *915:A 0.000213454
3 *920:A1 0
4 *923:A2 0
5 *919:B 0
6 *916:A 0
7 *1055:Q 0
8 *198:103 0.000695794
9 *198:77 0.000430606
10 *198:62 0.000844292
11 *198:51 0.000785055
12 *198:45 0.00143092
13 *198:43 0.00128923
14 *198:37 0.00275158
15 *198:33 0.00413413
16 *198:29 0.00334629
17 *198:16 0.000518492
18 *198:4 0.000942836
19 *198:51 *204:62 0.00124652
20 *198:51 *206:28 5.3304e-05
21 *198:51 *220:31 0.000178517
22 *198:62 *923:A1 1.71761e-05
23 *198:77 *920:B1 0.000233359
24 *198:77 *923:A1 5.79559e-05
25 *198:77 *923:B1 2.1819e-05
26 *198:77 *216:14 7.46522e-05
27 *198:77 *217:16 0.000249153
28 *902:D *198:103 0.000626266
29 *915:B *915:A 0.000223692
30 *923:A3 *198:62 0.000397596
31 *933:A *198:16 0.000100069
32 *955:A *198:33 0.000262103
33 *1008:B1 *198:77 0.000100069
34 *1055:CLK *198:33 7.73035e-05
35 *1055:D *198:29 0.000400137
36 *1055:D *198:33 5.1614e-07
37 *1063:RESET_B *198:103 4.50413e-05
38 *1072:CLK *198:37 0.000652976
39 *1072:RESET_B *198:33 0.000169684
40 *1080:CLK *915:A 4.53082e-05
41 *20:216 *198:16 2.8411e-05
42 *20:216 *198:29 0.000228558
43 *25:6 *198:33 2.3923e-05
44 *32:14 *198:16 0
45 *35:10 *198:29 8.58315e-05
46 *49:26 *198:33 1.31115e-05
47 *49:26 *198:37 0.000284104
48 *54:20 *198:16 0.000788546
49 *70:16 *198:51 0.000291869
50 *71:6 *198:37 0.000847038
51 *80:16 *198:29 4.06419e-05
52 *91:27 *198:51 5.08422e-06
53 *93:60 *198:16 3.22051e-05
54 *102:51 *198:77 0.000217018
55 *107:10 *198:51 2.90257e-05
56 *110:8 *198:62 0.000226899
57 *130:14 *198:43 0.00163985
58 *130:14 *198:45 0.000403473
59 *130:14 *198:51 0.00102798
60 *134:12 *198:33 0.000114886
61 *144:18 *198:33 2.81066e-05
62 *145:10 *198:43 4.15283e-06
63 *145:10 *198:103 6.22114e-05
64 *146:10 *198:43 0.000116232
65 *158:14 *198:37 0.000390107
66 *165:35 *198:43 0.000249909
67 *177:123 *198:51 0.000180861
68 *182:91 *198:103 0.000734561
69 *183:121 *198:43 0.000187996
70 *187:20 *198:33 0.00021083
71 *187:47 *198:43 5.8538e-05
72 *187:47 *198:45 4.24694e-06
73 *187:47 *198:103 0.000201928
74 *187:49 *198:45 4.53323e-05
75 *187:55 *198:45 5.37659e-05
76 *187:55 *198:51 2.12347e-06
77 *187:55 *198:62 0.000135037
78 *196:10 *198:33 1.21972e-05
79 *196:89 *198:33 0.000164073
*RES
1 *1055:Q *198:4 23 
2 *198:4 *198:16 43.05 
3 *198:16 *916:A 23 
4 *198:4 *198:29 40.3986 
5 *198:29 *198:33 36.3743 
6 *198:33 *198:37 39.9193 
7 *198:37 *198:43 23.4486 
8 *198:43 *198:45 5.77929 
9 *198:45 *198:51 39.7329 
10 *198:51 *919:B 23 
11 *198:45 *198:62 23.265 
12 *198:62 *923:A2 23 
13 *198:62 *198:77 40.9579 
14 *198:77 *920:A1 23 
15 *198:43 *915:A 41.9771 
16 *198:37 *198:103 31.1157 
17 *198:103 *902:C 23 
*END

*D_NET *199 0.0304133
*CONN
*I *910:D I *D sky130_fd_sc_hd__and4_2
*I *989:A I *D sky130_fd_sc_hd__nand2_1
*I *988:A I *D sky130_fd_sc_hd__or2_1
*I *993:B I *D sky130_fd_sc_hd__and4_1
*I *1074:Q O *D sky130_fd_sc_hd__dfrtp_2
*CAP
1 *910:D 8.81957e-05
2 *989:A 0
3 *988:A 0
4 *993:B 6.98862e-05
5 *1074:Q 0
6 *199:80 0.000981096
7 *199:70 0.00181265
8 *199:60 0.00106422
9 *199:58 0.00112921
10 *199:41 0.00155778
11 *199:18 0.00399512
12 *199:6 0.00335219
13 *993:B *210:72 2.12158e-05
14 *199:18 *204:43 0.000194321
15 *199:18 *213:28 3.75113e-06
16 *199:18 *219:10 0.000249958
17 *199:58 *931:B1 0.00126977
18 *199:80 *217:16 0.000528076
19 *893:A *199:58 6.37845e-05
20 *1074:RESET_B *199:18 0.000319651
21 *1078:RESET_B *199:18 8.58995e-05
22 *1083:RESET_B *199:58 0.000335768
23 *30:12 *199:41 0.000115173
24 *45:10 *199:18 8.02078e-06
25 *47:20 *199:60 0.000223497
26 *47:20 *199:70 0.00077012
27 *66:14 *199:58 0.00029985
28 *74:14 *199:80 0
29 *84:60 *199:60 0.000213353
30 *84:60 *199:70 0.000772402
31 *85:30 *199:41 2.93845e-05
32 *85:30 *199:58 0.000108826
33 *86:39 *199:41 0.000184687
34 *101:18 *993:B 4.39919e-05
35 *101:18 *199:41 0.000168532
36 *103:84 *199:18 7.11274e-06
37 *103:102 *199:18 0.000143027
38 *109:12 *199:18 0.000728772
39 *117:39 *199:80 0.000578072
40 *122:20 *993:B 9.86551e-06
41 *123:14 *993:B 4.6719e-05
42 *123:14 *199:41 0.00055009
43 *126:128 *199:41 5.50106e-05
44 *126:128 *199:58 0.000248719
45 *129:24 *199:18 0.00299614
46 *146:148 *993:B 2.47015e-05
47 *152:26 *199:18 3.9779e-05
48 *155:61 *199:41 0.000138271
49 *155:84 *199:80 6.75144e-05
50 *166:65 *199:18 0.000377303
51 *171:24 *199:18 0.00177882
52 *173:90 *199:80 7.13401e-05
53 *177:89 *199:70 0.000208228
54 *177:89 *199:80 0.000129325
55 *184:88 *199:41 4.8098e-05
56 *185:6 *199:58 1.09903e-05
57 *185:19 *199:58 0.000439378
58 *185:90 *199:58 0.00144131
59 *195:73 *199:18 0.000120153
60 *196:133 *910:D 9.41704e-05
*RES
1 *1074:Q *199:6 38 
2 *199:6 *199:18 47.3675 
3 *199:18 *993:B 46.5059 
4 *199:18 *199:41 28.9454 
5 *199:41 *988:A 23 
6 *199:41 *199:58 47.3971 
7 *199:58 *199:60 3.31429 
8 *199:60 *199:70 49.9582 
9 *199:70 *199:80 38.2104 
10 *199:80 *989:A 23 
11 *199:60 *910:D 39.0979 
*END

*D_NET *200 0.0260322
*CONN
*I *910:C I *D sky130_fd_sc_hd__and4_2
*I *993:A I *D sky130_fd_sc_hd__and4_1
*I *992:A I *D sky130_fd_sc_hd__inv_2
*I *1075:Q O *D sky130_fd_sc_hd__dfrtp_2
*CAP
1 *910:C 0
2 *993:A 0
3 *992:A 0
4 *1075:Q 4.09526e-05
5 *200:64 0.00206839
6 *200:45 0.000331473
7 *200:35 0.00449701
8 *200:18 0.00119321
9 *200:16 0.00160015
10 *200:8 0.00254503
11 *200:16 *215:10 0.00043937
12 *200:35 *210:72 0.000455166
13 *200:64 *202:51 0.000468897
14 *200:64 *208:44 0.000281531
15 *200:64 *210:72 0.00026848
16 *908:B *200:18 0.000465482
17 *977:A *200:35 2.19404e-05
18 *1071:RESET_B *200:64 7.71349e-05
19 *1081:CLK *200:8 5.3304e-05
20 *1081:CLK *200:35 0.000103645
21 *20:173 *200:45 0.000188957
22 *27:24 *200:64 8.76318e-05
23 *35:10 *200:16 0.000243334
24 *35:10 *200:35 1.23172e-05
25 *38:12 *200:35 1.21633e-05
26 *62:14 *200:18 0.00114079
27 *80:16 *200:18 0
28 *86:20 *200:35 0.000965043
29 *86:20 *200:64 2.55744e-05
30 *87:12 *200:35 3.55272e-05
31 *92:14 *200:16 0.000238862
32 *92:14 *200:35 2.05503e-05
33 *94:37 *200:18 3.11878e-05
34 *112:130 *200:64 0.000185466
35 *116:34 *200:35 0.00010923
36 *116:34 *200:64 0.000118729
37 *117:76 *200:35 0.000172848
38 *154:10 *200:64 0.000589795
39 *154:20 *200:45 0.00010067
40 *154:52 *200:18 0.000501222
41 *155:61 *200:64 9.38377e-05
42 *159:24 *200:45 0
43 *161:8 *200:18 0.00327903
44 *161:20 *200:35 0.000366493
45 *166:65 *200:18 1.37246e-05
46 *171:24 *200:35 0
47 *188:121 *200:35 0.000268699
48 *189:33 *200:64 0.00113992
49 *194:39 *200:18 0.000432865
50 *195:22 *200:64 0.000675007
51 *196:133 *200:64 7.16015e-05
*RES
1 *1075:Q *200:8 38.6214 
2 *200:8 *200:16 38.2236 
3 *200:16 *200:18 44.515 
4 *200:18 *992:A 38 
5 *200:8 *200:35 14.0256 
6 *200:35 *200:45 28.3339 
7 *200:45 *993:A 23 
8 *200:35 *200:64 37.7904 
9 *200:64 *910:C 23 
*END

*D_NET *201 0.0336945
*CONN
*I *910:B I *D sky130_fd_sc_hd__and4_2
*I *996:A I *D sky130_fd_sc_hd__and2_1
*I *995:A I *D sky130_fd_sc_hd__nor2_1
*I *1076:Q O *D sky130_fd_sc_hd__dfrtp_2
*CAP
1 *910:B 0
2 *996:A 0
3 *995:A 0.00031957
4 *1076:Q 0
5 *201:82 0.000543395
6 *201:76 0.00157881
7 *201:74 0.00126079
8 *201:56 0.0009271
9 *201:50 0.00128075
10 *201:40 0.00151184
11 *201:34 0.00128983
12 *201:24 0.00233848
13 *201:6 0.00211263
14 *995:A *221:22 0.000238622
15 *201:24 *205:26 0.000167089
16 *201:24 *208:65 0
17 *201:34 *203:54 0.00026382
18 *201:82 *206:65 0.000381318
19 *201:82 *207:43 0.000407569
20 *889:B *201:56 0.000163308
21 *902:D *201:82 0
22 *995:B *995:A 0.00135375
23 *1034:A *201:50 1.24376e-05
24 *20:173 *201:24 4.40195e-05
25 *29:12 *201:76 0.00153647
26 *45:10 *201:34 2.45318e-05
27 *45:10 *201:40 0.00148631
28 *46:26 *201:40 0.000136738
29 *46:26 *201:50 3.04516e-05
30 *50:26 *201:24 2.03754e-05
31 *53:22 *201:56 0.000825698
32 *57:6 *995:A 3.18142e-05
33 *59:12 *201:50 0.000180849
34 *62:22 *201:24 8.49526e-05
35 *71:26 *201:74 2.36182e-05
36 *79:8 *201:40 0.000110258
37 *87:32 *201:24 0.000102247
38 *88:10 *201:82 2.7923e-05
39 *97:8 *201:40 0.000125213
40 *97:8 *201:50 0.000139352
41 *103:102 *201:50 0.000154632
42 *124:10 *201:34 4.29275e-05
43 *132:14 *201:34 0.000640051
44 *148:54 *201:76 0.00318264
45 *152:26 *201:76 0.00020674
46 *162:26 *201:34 0.000614956
47 *162:26 *201:40 0.000189278
48 *162:38 *201:50 4.2573e-05
49 *162:48 *201:50 0.000207012
50 *168:16 *201:40 0.00100805
51 *169:6 *201:34 0.00026382
52 *175:28 *995:A 0.00128025
53 *176:16 *201:50 0.00068032
54 *176:40 *201:50 0.000699784
55 *176:97 *201:40 7.15518e-05
56 *178:44 *201:24 0.000162878
57 *182:91 *201:82 0
58 *183:145 *201:56 0.000997468
59 *189:18 *201:24 4.51815e-05
60 *194:71 *201:56 3.47877e-05
61 *194:95 *201:50 0.000779186
62 *195:53 *201:24 0.00130845
*RES
1 *1076:Q *201:6 38 
2 *201:6 *201:24 42.0434 
3 *201:24 *201:34 43.4539 
4 *201:34 *201:40 37.6718 
5 *201:40 *201:50 49.2229 
6 *201:50 *201:56 45.2871 
7 *201:56 *995:A 39.24 
8 *201:40 *996:A 23 
9 *201:6 *201:74 18.3143 
10 *201:74 *201:76 42.5471 
11 *201:76 *201:82 41.4136 
12 *201:82 *910:B 23 
*END

*D_NET *202 0.0214022
*CONN
*I *910:A I *D sky130_fd_sc_hd__and4_2
*I *1000:A1 I *D sky130_fd_sc_hd__o211a_1
*I *1077:Q O *D sky130_fd_sc_hd__dfrtp_1
*CAP
1 *910:A 0
2 *1000:A1 0
3 *1077:Q 0.000573158
4 *202:51 0.000643044
5 *202:34 0.000356294
6 *202:26 0.00194505
7 *202:24 0.00435338
8 *202:10 0.00269474
9 *202:26 *218:16 0.000666698
10 *1054:RESET_B *202:10 0.000347875
11 *1071:RESET_B *202:26 1.71418e-05
12 *1071:RESET_B *202:51 0.000564706
13 *39:6 *202:34 0.00013222
14 *42:12 *202:26 0.000571224
15 *49:16 *202:26 0.000891312
16 *65:10 *202:26 0
17 *68:14 *202:26 0.00110915
18 *79:28 *202:24 6.16449e-05
19 *93:20 *202:26 0.000275584
20 *93:20 *202:51 5.51479e-05
21 *112:130 *202:51 0.000185239
22 *112:151 *202:34 0.000167215
23 *112:164 *202:34 9.5877e-05
24 *115:24 *202:26 0.000305554
25 *117:47 *202:24 0.000303774
26 *122:20 *202:10 0.000359981
27 *126:97 *202:24 0.000145595
28 *129:24 *202:10 3.34818e-06
29 *130:14 *202:26 0
30 *130:26 *202:24 0.00246487
31 *145:10 *202:26 2.17748e-05
32 *146:148 *202:24 2.42294e-05
33 *154:10 *202:51 2.18506e-05
34 *164:37 *202:34 0.000164975
35 *175:157 *202:26 5.3858e-05
36 *177:61 *202:26 0.000162812
37 *177:80 *202:26 0.000585539
38 *187:14 *202:10 5.3304e-05
39 *187:43 *202:10 0.000171251
40 *196:89 *202:24 0.00012361
41 *196:133 *202:51 0.00026025
42 *200:64 *202:51 0.000468897
*RES
1 *1077:Q *202:10 47.6839 
2 *202:10 *202:24 21.8576 
3 *202:24 *202:26 45.7475 
4 *202:26 *202:34 36.2143 
5 *202:34 *1000:A1 38 
6 *202:24 *202:51 30.0489 
7 *202:51 *910:A 23 
*END

*D_NET *203 0.0255611
*CONN
*I *1001:A I *D sky130_fd_sc_hd__inv_2
*I *911:C1 I *D sky130_fd_sc_hd__o211ai_4
*I *1004:A1 I *D sky130_fd_sc_hd__a31o_1
*I *1078:Q O *D sky130_fd_sc_hd__dfrtp_4
*CAP
1 *1001:A 0
2 *911:C1 0
3 *1004:A1 8.89689e-06
4 *1078:Q 0.000114571
5 *203:98 0.000603164
6 *203:90 0.00108883
7 *203:75 0.00090372
8 *203:60 0.00119626
9 *203:54 0.00127947
10 *203:48 0.00211598
11 *203:34 0.00160366
12 *203:20 0.00147698
13 *203:12 0.000622381
14 *203:34 *212:62 0.000135037
15 *203:54 *204:26 0.000221084
16 *905:D *203:48 0.000342364
17 *911:B1 *203:75 7.13587e-05
18 *960:C *203:90 0.000129634
19 *961:A *203:12 0.00015658
20 *1004:A3 *203:54 0.000221715
21 *1057:D *203:20 9.41704e-05
22 *1067:D *203:90 1.89135e-05
23 *20:129 *203:54 9.41704e-05
24 *43:24 *203:34 0.000197895
25 *43:24 *203:48 0.000232409
26 *50:26 *203:60 0.000212674
27 *54:20 *203:60 4.4449e-05
28 *61:22 *203:34 3.37904e-05
29 *62:22 *203:60 5.03571e-05
30 *64:10 *203:20 4.62856e-05
31 *79:28 *203:48 0.000679707
32 *80:16 *203:48 6.28048e-05
33 *85:16 *203:90 0.000182822
34 *90:14 *203:90 0.000739625
35 *93:48 *1004:A1 1.27321e-05
36 *93:48 *203:75 0.000170196
37 *93:126 *203:34 0
38 *96:12 *203:34 0.000137361
39 *96:37 *203:98 0.00105714
40 *102:12 *203:75 0.000268873
41 *103:38 *203:34 3.40618e-05
42 *103:52 *203:34 0
43 *114:30 *203:90 0.000184987
44 *126:82 *203:34 1.73677e-05
45 *126:97 *203:98 0.000706853
46 *126:116 *203:98 5.56164e-05
47 *127:8 *203:34 8.50457e-05
48 *134:18 *203:54 4.30894e-05
49 *137:48 *203:98 3.83103e-05
50 *138:14 *203:12 0.000144501
51 *141:22 *203:20 0.000696647
52 *141:22 *203:34 4.51797e-05
53 *154:10 *203:98 5.3304e-05
54 *158:18 *203:34 0.000152081
55 *165:29 *203:54 0.00219358
56 *165:29 *203:90 0.00022034
57 *166:53 *203:12 9.36964e-05
58 *169:6 *203:54 0.000736731
59 *175:80 *203:75 9.82521e-05
60 *175:137 *203:12 0.000181801
61 *177:35 *203:75 0
62 *178:59 *203:48 0.000182522
63 *178:59 *203:90 0.000139586
64 *181:44 *203:20 9.65021e-05
65 *185:23 *203:98 8.30566e-06
66 *185:43 *203:34 0
67 *187:20 *1004:A1 2.26406e-05
68 *187:20 *203:75 0.000572751
69 *189:43 *203:98 0
70 *191:86 *203:48 0.000234452
71 *193:16 *203:20 0.00078847
72 *193:16 *203:34 0.000797318
73 *193:36 *203:54 4.51797e-05
74 *201:34 *203:54 0.00026382
*RES
1 *1078:Q *203:12 42.1221 
2 *203:12 *203:20 42.5114 
3 *203:20 *203:34 49.3575 
4 *203:34 *203:48 43.1371 
5 *203:48 *203:54 42.9746 
6 *203:54 *203:60 16.7429 
7 *203:60 *1004:A1 38.3211 
8 *203:60 *203:75 35.0825 
9 *203:75 *911:C1 23 
10 *203:48 *203:90 43.3814 
11 *203:90 *203:98 45.2043 
12 *203:98 *1001:A 23 
*END

*D_NET *204 0.0255923
*CONN
*I *900:A I *D sky130_fd_sc_hd__inv_2
*I *1009:A2 I *D sky130_fd_sc_hd__o211a_1
*I *1004:B1 I *D sky130_fd_sc_hd__a31o_1
*I *1079:Q O *D sky130_fd_sc_hd__dfrtp_2
*CAP
1 *900:A 0
2 *1009:A2 2.87382e-05
3 *1004:B1 0
4 *1079:Q 0.000325947
5 *204:62 0.000560078
6 *204:58 0.0010911
7 *204:43 0.0018463
8 *204:26 0.000550794
9 *204:16 0.00256724
10 *204:8 0.00362893
11 *204:8 *220:24 1.44897e-05
12 *204:16 *214:10 0.000109226
13 *204:43 *205:55 8.74292e-05
14 *204:43 *213:28 0
15 *1004:A3 *204:26 0.000170708
16 *1009:B1 *1009:A2 3.81033e-05
17 *1053:RESET_B *204:16 0.000111987
18 *1053:RESET_B *204:26 0.000570422
19 *1078:RESET_B *204:43 0.00114391
20 *38:24 *204:16 6.26708e-06
21 *39:6 *204:58 0.00161813
22 *45:10 *204:8 4.46721e-05
23 *45:10 *204:43 5.90856e-07
24 *63:18 *204:8 0
25 *74:14 *204:43 0.000440336
26 *84:27 *204:16 0.000804005
27 *86:59 *204:16 0.000224844
28 *91:12 *204:62 0.000407239
29 *91:27 *204:16 0.000307792
30 *91:54 *204:16 0.000484505
31 *91:54 *204:26 0.00018008
32 *93:126 *204:43 1.6613e-05
33 *112:18 *204:43 9.02578e-05
34 *112:141 *1009:A2 0.000113379
35 *112:141 *204:58 4.18667e-05
36 *126:61 *204:43 0.000291218
37 *133:60 *204:16 0.000385998
38 *137:20 *204:43 8.29007e-05
39 *146:38 *204:26 2.02872e-05
40 *146:51 *204:26 3.93196e-05
41 *160:18 *204:16 0.0011169
42 *166:8 *204:62 3.93904e-06
43 *166:14 *204:62 0.000239234
44 *166:65 *204:43 6.2481e-05
45 *168:16 *204:43 0.000284221
46 *169:6 *204:26 0.000385463
47 *172:14 *1009:A2 4.78497e-05
48 *172:14 *204:58 0.0016994
49 *173:30 *204:16 3.72975e-05
50 *175:14 *204:8 0.000150637
51 *176:14 *204:16 0.000183855
52 *177:123 *204:62 1.01436e-05
53 *188:22 *204:16 0.00010312
54 *191:94 *204:26 0.000185325
55 *193:16 *204:43 0
56 *194:57 *204:16 0.00030822
57 *194:61 *204:16 0.000474997
58 *196:62 *204:26 0.000191628
59 *198:51 *204:62 0.00124652
60 *199:18 *204:43 0.000194321
61 *203:54 *204:26 0.000221084
*RES
1 *1079:Q *204:8 42.8989 
2 *204:8 *204:16 49.8645 
3 *204:16 *204:26 30.8257 
4 *204:26 *1004:B1 23 
5 *204:8 *204:43 39.9813 
6 *204:43 *1009:A2 24.595 
7 *204:43 *204:58 34.6993 
8 *204:58 *204:62 32.0479 
9 *204:62 *900:A 23 
*END

*D_NET *205 0.0244339
*CONN
*I *1009:A1 I *D sky130_fd_sc_hd__o211a_1
*I *912:B1_N I *D sky130_fd_sc_hd__a21bo_4
*I *1080:Q O *D sky130_fd_sc_hd__dfrtp_1
*CAP
1 *1009:A1 0
2 *912:B1_N 0
3 *1080:Q 1.41837e-05
4 *205:55 0.00172966
5 *205:36 0.000802536
6 *205:26 0.00418074
7 *205:12 0.00747649
8 *205:10 0.00238281
9 *205:10 *213:10 5.03902e-05
10 an[7] *205:12 7.95009e-05
11 *11:21 *205:26 0.000166223
12 *20:119 *205:26 0.000263162
13 *36:24 *205:55 8.58697e-05
14 *43:24 *205:26 0.000191873
15 *61:22 *205:12 0.000268766
16 *61:22 *205:26 0.000362984
17 *69:10 *205:10 5.03902e-05
18 *74:14 *205:55 0.000105945
19 *80:16 *205:12 0
20 *80:16 *205:26 0
21 *83:10 *205:36 6.57815e-06
22 *83:18 *205:36 0
23 *86:51 *205:55 0.00158006
24 *91:27 *205:26 0
25 *103:14 *205:36 0.000134507
26 *103:20 *205:36 0.000757372
27 *103:38 *205:26 2.79592e-05
28 *103:175 *205:12 6.17456e-05
29 *103:175 *205:26 0.000202038
30 *118:14 *205:36 0
31 *126:61 *205:55 1.9885e-05
32 *126:82 *205:26 3.32315e-05
33 *149:16 *205:26 0.000125234
34 *149:24 *205:26 6.04116e-05
35 *149:24 *205:36 0
36 *162:14 *205:36 0
37 *162:38 *205:26 4.57887e-05
38 *167:18 *205:12 4.51815e-05
39 *167:18 *205:55 0.000763534
40 *168:16 *205:55 0.000646465
41 *177:80 *205:12 0.000121132
42 *178:33 *205:26 0.000125842
43 *178:44 *205:26 0.000924926
44 *186:46 *205:36 1.59094e-05
45 *187:14 *205:36 0
46 *188:14 *205:36 8.08504e-05
47 *188:102 *205:36 9.41704e-05
48 *189:61 *205:12 6.65013e-06
49 *189:61 *205:26 4.62369e-05
50 *192:96 *205:36 3.34932e-05
51 *193:16 *205:55 8.61037e-06
52 *201:24 *205:26 0.000167089
53 *204:43 *205:55 8.74292e-05
*RES
1 *1080:Q *205:10 46.6732 
2 *205:10 *205:12 4.90747 
3 *205:12 *205:26 48.5108 
4 *205:26 *205:36 46.1986 
5 *205:36 *912:B1_N 23 
6 *205:12 *205:55 44.74 
7 *205:55 *1009:A1 23 
*END

*D_NET *206 0.0209618
*CONN
*I *902:B I *D sky130_fd_sc_hd__and4_4
*I *923:A1 I *D sky130_fd_sc_hd__a31o_1
*I *920:B1 I *D sky130_fd_sc_hd__a21o_1
*I *919:A I *D sky130_fd_sc_hd__nand3_1
*I *1056:Q O *D sky130_fd_sc_hd__dfrtp_2
*CAP
1 *902:B 0
2 *923:A1 0.000189974
3 *920:B1 0.000185265
4 *919:A 0
5 *1056:Q 0.000358844
6 *206:65 0.00131411
7 *206:41 0.000683934
8 *206:28 0.000650413
9 *206:22 0.00121289
10 *206:20 0.000336686
11 *206:18 0.00294546
12 *206:12 0.00190729
13 *923:A1 *923:B1 0.000356222
14 *206:20 *207:43 5.68297e-05
15 *206:28 *220:31 2.02872e-05
16 *206:41 *216:14 7.28792e-05
17 *206:65 *207:43 0.00158464
18 *902:D *206:65 7.56541e-05
19 *923:A3 *923:A1 0.00038134
20 *1008:B1 *920:B1 4.65192e-05
21 *1093:A *206:12 0.00018561
22 *20:94 *206:12 0.000613632
23 *20:104 *206:18 0.000499206
24 *39:14 *206:41 4.38956e-05
25 *91:12 *920:B1 5.56356e-05
26 *93:108 *206:12 0
27 *103:52 *206:12 0.00013448
28 *107:10 *206:28 3.7122e-06
29 *166:8 *206:20 0.000150872
30 *166:8 *206:22 0.000242345
31 *166:8 *206:28 0.000159071
32 *166:8 *206:65 0.00110609
33 *166:14 *206:28 0.000831974
34 *167:47 *206:28 1.22906e-05
35 *168:8 *206:28 0.000385585
36 *181:8 *206:18 9.41704e-05
37 *183:77 *206:12 0.000496399
38 *187:47 *206:65 0.000243414
39 *187:55 *923:A1 5.3304e-05
40 *187:59 *206:20 3.46013e-05
41 *187:59 *206:22 0.000249153
42 *187:59 *206:28 0.00136082
43 *195:12 *206:65 0.000883188
44 *198:51 *206:28 5.3304e-05
45 *198:62 *923:A1 1.71761e-05
46 *198:77 *920:B1 0.000233359
47 *198:77 *923:A1 5.79559e-05
48 *201:82 *206:65 0.000381318
*RES
1 *1056:Q *206:12 49.6 
2 *206:12 *206:18 48.7257 
3 *206:18 *206:20 2.25786 
4 *206:20 *206:22 3.31429 
5 *206:22 *206:28 35.2586 
6 *206:28 *919:A 23 
7 *206:22 *206:41 37.6436 
8 *206:41 *920:B1 42.4329 
9 *206:20 *923:A1 43.8621 
10 *206:18 *206:65 40.3514 
11 *206:65 *902:B 38 
*END

*D_NET *207 0.0175269
*CONN
*I *902:A I *D sky130_fd_sc_hd__and4_4
*I *923:B1 I *D sky130_fd_sc_hd__a31o_1
*I *1057:Q O *D sky130_fd_sc_hd__dfrtp_1
*CAP
1 *902:A 0
2 *923:B1 0.000260496
3 *1057:Q 0.00182353
4 *207:43 0.00158279
5 *207:18 0.00308339
6 *207:12 0.00306363
7 *207:12 *214:39 7.89586e-06
8 *207:12 *215:55 0.000159873
9 *207:18 *1097:A 0.000308082
10 *923:A1 *923:B1 0.000356222
11 *1057:RESET_B *207:12 0.000135823
12 *1080:RESET_B *207:18 0.000322528
13 *1080:RESET_B *207:43 4.07905e-05
14 *41:16 *207:18 7.35289e-05
15 *47:20 *207:43 0
16 *80:10 *207:43 2.26497e-05
17 *84:60 *207:43 8.44738e-05
18 *88:10 *207:43 5.586e-05
19 *108:18 *207:18 0.000141897
20 *110:12 *207:43 0.00100647
21 *139:14 *207:18 2.12505e-05
22 *167:43 *207:18 4.39814e-05
23 *167:47 *207:18 3.3746e-05
24 *170:18 *207:12 2.94459e-05
25 *172:8 *207:18 8.97648e-05
26 *177:57 *207:12 0.00090821
27 *177:57 *207:18 3.60508e-05
28 *177:117 *207:18 0.000139657
29 *181:44 *207:12 5.19771e-05
30 *181:52 *207:12 0.000152614
31 *187:59 *207:18 9.46902e-05
32 *187:59 *207:43 4.8171e-05
33 *194:16 *207:43 0.00125386
34 *195:158 *207:43 2.26406e-05
35 *198:77 *923:B1 2.1819e-05
36 *201:82 *207:43 0.000407569
37 *206:20 *207:43 5.68297e-05
38 *206:65 *207:43 0.00158464
*RES
1 *1057:Q *207:12 49.0586 
2 *207:12 *207:18 35.5279 
3 *207:18 *923:B1 42.93 
4 *207:18 *207:43 45.6543 
5 *207:43 *902:A 38 
*END

*D_NET *208 0.0320396
*CONN
*I *932:B I *D sky130_fd_sc_hd__and3_1
*I *928:A I *D sky130_fd_sc_hd__or2_1
*I *903:D I *D sky130_fd_sc_hd__and4_1
*I *927:A I *D sky130_fd_sc_hd__nand2_1
*I *931:A1 I *D sky130_fd_sc_hd__a21oi_1
*I *1058:Q O *D sky130_fd_sc_hd__dfrtp_2
*CAP
1 *932:B 0
2 *928:A 2.28094e-05
3 *903:D 0
4 *927:A 0
5 *931:A1 0
6 *1058:Q 0
7 *208:110 0.000591487
8 *208:93 0.000924631
9 *208:78 0.000548539
10 *208:65 0.000188923
11 *208:55 0.000592708
12 *208:44 0.00257653
13 *208:34 0.00407752
14 *208:18 0.00231633
15 *208:8 0.00249407
16 *208:4 0.00103674
17 *208:18 *214:82 0.000507149
18 *208:34 *214:82 6.65734e-05
19 *208:44 *210:72 0
20 *208:44 *213:10 0
21 *208:78 *903:C 9.5877e-05
22 *208:78 *219:16 9.41704e-05
23 *208:110 *214:62 6.28847e-05
24 *895:A2 *208:55 0.000507582
25 *917:A *208:110 0.000366419
26 *917:B *208:110 7.61263e-05
27 *928:B *208:110 5.56279e-05
28 *960:C *208:18 1.56665e-05
29 *977:A *208:65 5.50381e-06
30 *1013:A *208:8 4.49877e-05
31 *1058:RESET_B *208:8 0.000130774
32 *1058:RESET_B *208:93 4.19535e-05
33 *1093:A *208:93 5.40337e-05
34 *1093:A *208:110 0.000110243
35 *20:58 *208:8 0.000393937
36 *20:152 *208:18 0.000257636
37 *20:187 *208:65 7.32728e-05
38 *23:24 *208:34 0.000111468
39 *23:24 *208:55 2.63601e-05
40 *34:10 *208:65 3.5259e-05
41 *67:16 *208:34 0
42 *78:28 *208:34 8.69414e-05
43 *79:28 *208:34 0.000477134
44 *85:30 *208:34 0.000117217
45 *85:30 *208:55 2.11066e-05
46 *90:14 *208:18 0.000175654
47 *92:8 *208:55 0.00114433
48 *93:110 *208:93 0
49 *93:120 *208:93 1.9972e-05
50 *103:52 *208:93 1.07299e-05
51 *112:102 *208:34 4.96928e-05
52 *113:6 *208:55 0.00183436
53 *114:30 *208:34 0.000497328
54 *116:34 *208:44 0.000108326
55 *120:14 *208:34 0.000285867
56 *122:12 *208:18 5.68297e-05
57 *126:116 *208:34 0.000132912
58 *135:24 *208:110 2.82225e-05
59 *144:18 *208:18 0.000805639
60 *169:14 *208:18 4.16815e-05
61 *169:14 *208:78 0.000856303
62 *170:18 *208:78 0.000431985
63 *175:115 *208:65 0
64 *178:59 *208:18 5.3304e-05
65 *178:59 *208:34 3.33144e-05
66 *183:57 *208:18 0.00120203
67 *183:77 *928:A 3.23857e-06
68 *183:81 *208:93 0.00013333
69 *183:111 *208:93 0.000100069
70 *183:111 *208:110 0.00025357
71 *184:74 *208:18 0.000543051
72 *185:57 *208:18 1.64332e-05
73 *186:29 *208:18 0.000363311
74 *186:29 *208:78 0.000182875
75 *189:33 *208:44 1.47439e-05
76 *189:63 *208:110 0.000461591
77 *190:46 *208:8 8.06804e-06
78 *195:22 *208:44 0.000571566
79 *196:108 *208:44 0.0018079
80 *196:133 *208:44 0.000323624
81 *197:87 *208:44 0
82 *200:64 *208:44 0.000281531
83 *201:24 *208:65 0
*RES
1 *1058:Q *208:4 23 
2 *208:4 *208:8 26.5793 
3 *208:8 *208:18 47.3764 
4 *208:18 *208:34 36.9882 
5 *208:34 *208:44 39.1398 
6 *208:44 *931:A1 23 
7 *208:34 *208:55 36.6568 
8 *208:55 *208:65 33.5007 
9 *208:65 *927:A 23 
10 *208:8 *208:78 28.8371 
11 *208:78 *903:D 23 
12 *208:4 *208:93 35.8829 
13 *208:93 *928:A 23.4971 
14 *208:93 *208:110 42.4907 
15 *208:110 *932:B 23 
*END

*D_NET *209 0.0193479
*CONN
*I *931:B1 I *D sky130_fd_sc_hd__a21oi_1
*I *932:A I *D sky130_fd_sc_hd__and3_1
*I *903:C I *D sky130_fd_sc_hd__and4_1
*I *1059:Q O *D sky130_fd_sc_hd__dfrtp_1
*CAP
1 *931:B1 0.00078332
2 *932:A 2.32701e-05
3 *903:C 0.000519579
4 *1059:Q 0.000198395
5 *209:66 0.00221503
6 *209:44 0.00160967
7 *209:24 0.00148999
8 *209:18 0.00200673
9 *903:C *219:16 0.000501782
10 *932:A *214:62 5.3304e-05
11 *209:24 *214:62 2.27532e-05
12 *209:44 *219:16 0.000226226
13 *209:66 *214:62 0.000196773
14 *209:66 *214:70 2.36594e-05
15 *894:B *931:B1 5.50106e-05
16 *917:B *209:44 0.00043644
17 *931:A2 *931:B1 0.000522783
18 *932:C *932:A 5.3304e-05
19 *950:B *209:44 0.000181805
20 *990:A *209:18 0.000183966
21 *1039:A *209:66 6.57304e-05
22 *29:16 *209:66 0.00101502
23 *66:14 *931:B1 0.000165198
24 *90:20 *209:66 0.000748555
25 *93:20 *931:B1 9.91895e-05
26 *94:8 *903:C 0.000139067
27 *94:50 *903:C 0.000558717
28 *96:16 *209:44 0
29 *103:175 *209:18 3.17109e-05
30 *116:14 *931:B1 7.51453e-06
31 *118:42 *209:66 0
32 *133:49 *209:44 0
33 *137:31 *209:24 0.000819255
34 *137:31 *209:44 6.92527e-05
35 *137:31 *209:66 0.000446131
36 *140:26 *209:44 0.00028827
37 *142:16 *209:66 0
38 *167:32 *209:44 1.10304e-05
39 *167:43 *209:44 0.000125628
40 *176:135 *209:66 0.000388007
41 *181:10 *209:24 0.000121982
42 *181:12 *209:24 0.000257862
43 *181:18 *209:24 0.000164172
44 *181:18 *209:44 6.92527e-05
45 *181:82 *209:24 0.000221783
46 *181:92 *209:18 0.00011804
47 *183:87 *209:44 0.000532725
48 *185:90 *931:B1 4.05745e-05
49 *191:22 *209:66 0.00017382
50 *199:58 *931:B1 0.00126977
51 *208:78 *903:C 9.5877e-05
*RES
1 *1059:Q *209:18 42.8057 
2 *209:18 *209:24 11.6104 
3 *209:24 *209:44 44.2628 
4 *209:44 *903:C 35.0557 
5 *209:24 *932:A 38.6214 
6 *209:18 *209:66 48.6711 
7 *209:66 *931:B1 44.1286 
*END

*D_NET *210 0.0363208
*CONN
*I *934:A I *D sky130_fd_sc_hd__or2_1
*I *903:B I *D sky130_fd_sc_hd__and4_1
*I *935:A I *D sky130_fd_sc_hd__nand2_1
*I *1060:Q O *D sky130_fd_sc_hd__dfrtp_2
*CAP
1 *934:A 0
2 *903:B 0
3 *935:A 0
4 *1060:Q 0
5 *210:72 0.00337127
6 *210:55 0.00245029
7 *210:40 0.00081295
8 *210:34 0.00633139
9 *210:22 0.00474957
10 *210:4 0.0050527
11 *210:22 *217:16 0.000319086
12 *210:34 *213:14 6.58308e-05
13 *210:34 *216:14 0.000191678
14 *210:55 *211:14 2.17538e-05
15 *210:55 *213:14 0.00043701
16 *210:55 *213:28 0.000394155
17 *993:B *210:72 2.12158e-05
18 *26:24 *210:40 0
19 *27:24 *210:72 8.76318e-05
20 *39:14 *210:34 0
21 *39:14 *210:40 0
22 *74:14 *210:34 0
23 *74:14 *210:55 0.00368047
24 *83:10 *210:72 4.89639e-05
25 *85:42 *210:72 3.47648e-05
26 *86:93 *210:22 4.45242e-05
27 *87:44 *210:72 7.77775e-05
28 *93:94 *210:72 0
29 *101:18 *210:72 4.7415e-05
30 *102:45 *210:22 8.97299e-06
31 *102:45 *210:72 0
32 *103:209 *210:72 0.00011643
33 *111:14 *210:22 0.00015399
34 *111:14 *210:72 0.000351661
35 *116:14 *210:72 0
36 *116:34 *210:72 0.000175945
37 *117:16 *210:40 0
38 *117:76 *210:72 4.77164e-06
39 *123:14 *210:22 0
40 *123:14 *210:72 0.00354509
41 *155:61 *210:72 0.000137778
42 *161:20 *210:72 0.000563022
43 *173:90 *210:22 3.23058e-05
44 *186:29 *210:55 1.81615e-05
45 *188:121 *210:72 0.000275831
46 *195:22 *210:72 0.00179682
47 *195:158 *210:72 0.000175967
48 *200:35 *210:72 0.000455166
49 *200:64 *210:72 0.00026848
50 *208:44 *210:72 0
*RES
1 *1060:Q *210:4 23 
2 *210:4 *210:22 47.1041 
3 *210:22 *210:34 35.4857 
4 *210:34 *210:40 29.4689 
5 *210:40 *935:A 23 
6 *210:34 *210:55 39.0279 
7 *210:55 *903:B 23 
8 *210:4 *210:72 48.6243 
9 *210:72 *934:A 38 
*END

*D_NET *211 0.013918
*CONN
*I *938:A I *D sky130_fd_sc_hd__inv_2
*I *903:A I *D sky130_fd_sc_hd__and4_1
*I *1061:Q O *D sky130_fd_sc_hd__dfrtp_1
*CAP
1 *938:A 0
2 *903:A 0
3 *1061:Q 0.000294847
4 *211:35 0.000942616
5 *211:31 0.00142961
6 *211:14 0.00105947
7 *211:10 0.00186842
8 *211:8 0.000616797
9 *211:31 *1052:A 7.36394e-05
10 *211:35 *1052:A 0.000737258
11 *211:35 *215:18 0.000562805
12 *1003:A *211:35 4.17625e-05
13 *1056:RESET_B *211:14 2.43567e-05
14 *1066:CLK *211:31 2.64616e-05
15 *24:12 *211:10 0.000623487
16 *24:12 *211:14 1.05441e-05
17 *37:6 *211:35 0.00105703
18 *46:6 *211:8 0.000304681
19 *122:12 *211:10 1.14977e-05
20 *122:12 *211:14 7.97656e-05
21 *122:20 *211:10 0.000608703
22 *155:39 *211:8 2.02872e-05
23 *159:24 *211:14 9.98725e-05
24 *162:26 *211:31 9.5877e-05
25 *162:26 *211:35 5.61255e-06
26 *168:30 *211:35 0.00248304
27 *174:8 *211:14 0.000166506
28 *183:57 *211:31 7.9438e-05
29 *184:54 *211:14 0.000265907
30 *184:62 *211:14 0.000129575
31 *185:57 *211:14 8.18794e-05
32 *186:29 *211:14 0
33 *195:73 *211:14 9.45396e-05
34 *196:16 *211:14 0
35 *210:55 *211:14 2.17538e-05
*RES
1 *1061:Q *211:8 41.9564 
2 *211:8 *211:10 8.94857 
3 *211:10 *211:14 35.5693 
4 *211:14 *903:A 23 
5 *211:10 *211:31 23.2029 
6 *211:31 *211:35 30.5329 
7 *211:35 *938:A 23 
*END

*D_NET *212 0.0261214
*CONN
*I *944:A1 I *D sky130_fd_sc_hd__a31o_1
*I *909:A1 I *D sky130_fd_sc_hd__o31a_1
*I *941:A I *D sky130_fd_sc_hd__nand2_1
*I *940:A I *D sky130_fd_sc_hd__or2_1
*I *945:B I *D sky130_fd_sc_hd__and4_2
*I *1062:Q O *D sky130_fd_sc_hd__dfrtp_2
*CAP
1 *944:A1 0
2 *909:A1 0
3 *941:A 0
4 *940:A 0.000217876
5 *945:B 0
6 *1062:Q 0
7 *212:80 0.000476935
8 *212:62 0.00138432
9 *212:58 0.00138432
10 *212:56 0.00047447
11 *212:37 0.00254171
12 *212:29 0.00230542
13 *212:25 0.00157622
14 *212:14 0.000536497
15 *212:6 0.00117973
16 *212:14 *945:A 0.000702165
17 *212:14 *213:28 0.000253034
18 *212:62 *214:70 0.000180218
19 *212:62 *214:130 0.000629678
20 *909:B1 *212:37 2.93747e-05
21 *945:D *212:14 6.67709e-05
22 *1034:A *212:14 0.000475825
23 *1039:A *212:62 0.000262864
24 *1062:RESET_B *212:14 0.000238982
25 *1066:RESET_B *212:56 0.000340079
26 *35:10 *212:14 9.20726e-06
27 *35:10 *212:25 5.36315e-05
28 *35:10 *212:80 0.000114813
29 *64:10 *212:56 0.000155216
30 *67:10 *212:62 0.000453347
31 *79:28 *212:56 0.000157457
32 *84:56 *212:62 0.000589914
33 *87:69 *212:14 0.000122928
34 *87:69 *212:25 0.000183676
35 *93:50 *212:80 0.000184815
36 *94:37 *212:80 2.02517e-05
37 *95:67 *212:62 0.00134998
38 *96:12 *212:62 0.000194066
39 *100:6 *212:29 2.63049e-05
40 *133:75 *212:25 0.000983011
41 *133:75 *212:80 0.000605965
42 *143:6 *212:80 5.3304e-05
43 *143:14 *212:80 0.000349386
44 *156:10 *212:14 0.000110306
45 *167:32 *212:25 1.22906e-05
46 *169:14 *940:A 5.95625e-06
47 *176:65 *212:29 0.000730766
48 *176:65 *212:37 7.14785e-05
49 *181:100 *212:56 1.69824e-05
50 *183:121 *212:62 0.000397892
51 *185:27 *212:62 0.000350072
52 *185:43 *940:A 5.3304e-05
53 *185:43 *212:62 5.3304e-05
54 *186:18 *940:A 0.000131799
55 *186:18 *212:37 2.97675e-05
56 *193:28 *212:37 0.00177887
57 *194:49 *212:25 0.000987006
58 *197:33 *940:A 0.000312315
59 *197:33 *212:37 8.04817e-05
60 *203:34 *212:62 0.000135037
*RES
1 *1062:Q *212:6 38 
2 *212:6 *212:14 31.6957 
3 *212:14 *945:B 23 
4 *212:6 *212:25 19.575 
5 *212:25 *212:29 24.1971 
6 *212:29 *212:37 40.5407 
7 *212:37 *940:A 42.9921 
8 *212:37 *212:56 37.1671 
9 *212:56 *212:58 15 
10 *212:58 *212:62 36.8507 
11 *212:62 *941:A 23 
12 *212:29 *909:A1 23 
13 *212:25 *212:80 27.6979 
14 *212:80 *944:A1 23 
*END

*D_NET *213 0.0310836
*CONN
*I *906:C I *D sky130_fd_sc_hd__or4_1
*I *944:B1 I *D sky130_fd_sc_hd__a31o_1
*I *945:A I *D sky130_fd_sc_hd__and4_2
*I *1063:Q O *D sky130_fd_sc_hd__dfrtp_2
*CAP
1 *906:C 5.30056e-05
2 *944:B1 0
3 *945:A 0.000214339
4 *1063:Q 9.01449e-05
5 *213:39 0.00100848
6 *213:28 0.00451059
7 *213:14 0.00527509
8 *213:10 0.00353091
9 *213:8 0.00168675
10 an[1] *213:10 7.39611e-05
11 an[3] *213:10 2.44846e-05
12 an[4] *213:10 2.44846e-05
13 an[5] *213:10 2.47015e-05
14 an[6] *213:10 5.2497e-05
15 seg[1] *213:10 2.44846e-05
16 seg[2] *213:10 2.47015e-05
17 *908:B *213:39 9.21347e-06
18 *945:D *945:A 0.000487401
19 *1062:RESET_B *213:28 0.000151674
20 *21:16 *213:10 6.29648e-05
21 *22:14 *213:39 0.00114529
22 *35:10 *213:28 0.000154313
23 *41:10 *213:10 0
24 *62:8 *945:A 5.67058e-05
25 *69:10 *213:10 0.00154312
26 *70:16 *213:14 0.000343586
27 *70:16 *213:28 0.000351275
28 *73:16 *213:39 0.000217939
29 *74:14 *213:10 0
30 *74:14 *213:14 2.60386e-05
31 *74:14 *213:28 1.05243e-05
32 *76:14 *213:28 0.00245667
33 *80:16 *213:39 0.000221545
34 *91:37 *213:39 0.000907521
35 *94:37 *213:39 0.000520447
36 *96:16 *906:C 2.26406e-05
37 *97:8 *906:C 0.000100061
38 *102:47 *213:10 0.00273615
39 *116:14 *213:10 0
40 *133:49 *906:C 4.95212e-05
41 *152:14 *213:28 8.76403e-05
42 *166:65 *213:28 0.000586686
43 *167:43 *213:14 0
44 *187:85 *213:10 2.83283e-05
45 *189:63 *906:C 1.13589e-05
46 *190:20 *906:C 5.11621e-05
47 *195:73 *213:28 0.000218823
48 *199:18 *213:28 3.75113e-06
49 *204:43 *213:28 0
50 *205:10 *213:10 5.03902e-05
51 *208:44 *213:10 0
52 *210:34 *213:14 6.58308e-05
53 *210:55 *213:14 0.00043701
54 *210:55 *213:28 0.000394155
55 *212:14 *945:A 0.000702165
56 *212:14 *213:28 0.000253034
*RES
1 *1063:Q *213:8 39.0979 
2 *213:8 *213:10 52.4382 
3 *213:10 *213:14 13.0363 
4 *213:14 *213:28 36.7952 
5 *213:28 *945:A 30.7679 
6 *213:28 *213:39 45.4293 
7 *213:39 *944:B1 38 
8 *213:14 *906:C 47.7711 
*END

*D_NET *214 0.0359707
*CONN
*I *899:A1 I *D sky130_fd_sc_hd__o21a_1
*I *895:A1 I *D sky130_fd_sc_hd__a211oi_1
*I *898:A1 I *D sky130_fd_sc_hd__a21oi_1
*I *896:A1 I *D sky130_fd_sc_hd__a21oi_1
*I *889:A I *D sky130_fd_sc_hd__and3_1
*I *1053:Q O *D sky130_fd_sc_hd__dfrtp_4
*CAP
1 *899:A1 0
2 *895:A1 0.00025191
3 *898:A1 0.00012245
4 *896:A1 0.000161146
5 *889:A 0.000559562
6 *1053:Q 0
7 *214:130 0.000367794
8 *214:113 0.00108302
9 *214:96 0.00027128
10 *214:82 0.000765379
11 *214:72 0.00217749
12 *214:70 0.00135542
13 *214:62 0.00174408
14 *214:43 0.00203688
15 *214:39 0.00184702
16 *214:31 0.00114151
17 *214:10 0.0018732
18 *214:4 0.00173318
19 *895:A2 *895:A1 0.000318666
20 *895:C1 *895:A1 2.47321e-05
21 *898:A2 *898:A1 0.000180843
22 *898:B1 *898:A1 5.3304e-05
23 *917:B *214:43 3.7681e-05
24 *917:B *214:62 4.67488e-05
25 *917:C *896:A1 3.06991e-05
26 *932:A *214:62 5.3304e-05
27 *932:C *896:A1 5.56279e-05
28 *932:C *214:62 0.000197437
29 *960:A *214:82 9.41704e-05
30 *960:B *898:A1 9.03964e-06
31 *960:C *214:82 0.000798653
32 *1039:A *214:62 5.94125e-05
33 *1053:RESET_B *214:10 6.09897e-05
34 *1071:CLK *214:72 2.64616e-05
35 *1074:CLK *214:10 3.88043e-05
36 *20:32 *889:A 0.000269577
37 *20:58 *214:10 0.000321691
38 *20:58 *214:31 0.000584868
39 *20:152 *214:82 7.49745e-05
40 *28:6 *214:72 9.17484e-05
41 *29:16 *214:70 3.41998e-06
42 *38:24 *214:10 0.000139796
43 *42:12 *214:130 0.000156484
44 *44:8 *214:72 0.000116249
45 *62:22 *214:96 0.000205763
46 *66:8 *214:113 8.25811e-05
47 *81:16 *214:10 8.30566e-06
48 *84:12 *214:10 7.4369e-05
49 *84:56 *214:70 0.000178517
50 *84:56 *214:130 0.00064041
51 *85:16 *214:113 0.00112544
52 *89:10 *214:43 0.000987721
53 *90:10 *898:A1 9.29518e-05
54 *90:10 *214:82 1.3523e-05
55 *90:14 *214:82 9.77922e-06
56 *90:20 *214:130 0.000221084
57 *95:61 *214:130 0.000108681
58 *103:20 *214:72 6.70361e-05
59 *103:20 *214:82 4.22172e-05
60 *106:8 *896:A1 0.000181409
61 *106:8 *214:43 0.000224877
62 *112:18 *214:31 0.00032993
63 *112:71 *214:96 7.57281e-06
64 *114:30 *214:113 0.000775292
65 *117:47 *214:96 6.53079e-05
66 *119:45 *214:62 0.000147324
67 *120:14 *214:82 0.00018197
68 *124:10 *214:96 2.31116e-05
69 *130:14 *214:130 2.3348e-05
70 *137:31 *214:70 0.000797434
71 *159:24 *214:96 2.05503e-05
72 *159:41 *214:62 0.000204133
73 *167:18 *214:70 0.000117582
74 *168:16 *214:31 0.000332162
75 *169:14 *214:39 8.62876e-05
76 *170:18 *214:39 0.000218081
77 *178:59 *214:82 1.01436e-05
78 *179:14 *214:10 1.0092e-05
79 *179:16 *214:10 0.000230621
80 *179:18 *214:10 0.000411536
81 *179:22 *214:10 0.000808104
82 *179:35 *214:10 3.93904e-06
83 *181:10 *214:62 0.000131263
84 *181:12 *214:62 0.000269243
85 *181:18 *214:62 0.000189703
86 *181:52 *214:39 6.17437e-06
87 *181:82 *214:62 0.000229737
88 *182:17 *214:70 0.000111926
89 *183:145 *889:A 7.9956e-05
90 *185:66 *214:39 8.4047e-05
91 *190:46 *214:10 0.000201184
92 *190:46 *214:31 0.000311705
93 *191:22 *214:70 0.000223445
94 *191:33 *214:70 0.000443176
95 *191:41 *214:70 0.000338701
96 *192:41 *214:62 0.000477694
97 *192:82 *214:82 6.63691e-05
98 *194:10 *214:130 0.000223698
99 *194:57 *214:10 0.000135527
100 *194:61 *214:10 0.000213336
101 *196:10 *214:96 2.11066e-05
102 *204:16 *214:10 0.000109226
103 *207:12 *214:39 7.89586e-06
104 *208:18 *214:82 0.000507149
105 *208:34 *214:82 6.65734e-05
106 *208:110 *214:62 6.28847e-05
107 *209:24 *214:62 2.27532e-05
108 *209:66 *214:62 0.000196773
109 *209:66 *214:70 2.36594e-05
110 *212:62 *214:70 0.000180218
111 *212:62 *214:130 0.000629678
*RES
1 *1053:Q *214:4 23 
2 *214:4 *214:10 46.61 
3 *214:10 *889:A 45.7886 
4 *214:4 *214:31 42.035 
5 *214:31 *214:39 39.4457 
6 *214:39 *214:43 16.5921 
7 *214:43 *896:A1 27.1221 
8 *214:43 *214:62 49.0157 
9 *214:62 *214:70 48.0421 
10 *214:70 *214:72 11.1029 
11 *214:72 *214:82 44.4586 
12 *214:82 *214:96 47.0416 
13 *214:96 *898:A1 26.0036 
14 *214:72 *214:113 47.4621 
15 *214:113 *895:A1 26.9564 
16 *214:62 *214:130 42.0764 
17 *214:130 *899:A1 23 
*END

*D_NET *215 0.0267857
*CONN
*I *1052:A I *D sky130_fd_sc_hd__inv_2
*I *1029:A I *D sky130_fd_sc_hd__clkbuf_8
*I *1051:A I *D sky130_fd_sc_hd__inv_2
*I *1040:A I *D sky130_fd_sc_hd__buf_4
*I *1018:A I *D sky130_fd_sc_hd__buf_4
*I *1094:X O *D sky130_fd_sc_hd__buf_2
*CAP
1 *1052:A 0.00066828
2 *1029:A 0
3 *1051:A 0
4 *1040:A 0
5 *1018:A 4.11105e-05
6 *1094:X 0.00126377
7 *215:55 0.000648014
8 *215:40 0.00132611
9 *215:32 0.00136809
10 *215:22 0.00152074
11 *215:18 0.00191173
12 *215:14 0.00160028
13 *215:10 0.00241023
14 *215:40 *219:10 4.05745e-05
15 *215:40 *220:24 0.000157111
16 *215:55 *220:10 0.000198954
17 *1014:A1 *215:40 0.000185371
18 *1082:RESET_B *215:32 0.00016632
19 *1082:RESET_B *215:40 5.61255e-06
20 *22:18 *215:14 0.00186959
21 *48:20 *215:14 0
22 *59:18 *215:14 0
23 *60:8 *215:10 0.000146631
24 *64:10 *215:40 5.43589e-05
25 *64:10 *215:55 0.000974728
26 *77:16 *1018:A 9.41704e-05
27 *77:16 *215:40 3.78835e-05
28 *86:59 *215:32 2.26406e-05
29 *94:50 *215:40 5.64582e-05
30 *94:50 *215:55 0.000520547
31 *97:14 *215:22 0
32 *102:22 *215:10 9.67842e-05
33 *102:22 *215:14 0.00015514
34 *133:22 *215:32 6.11082e-05
35 *133:22 *215:40 0.00189152
36 *146:103 *215:32 3.63634e-05
37 *148:10 *215:32 0
38 *153:14 *215:32 0
39 *161:20 *215:10 0.000100139
40 *175:14 *1018:A 9.41704e-05
41 *175:14 *215:40 0.00129498
42 *175:103 *215:14 6.32716e-05
43 *176:59 *215:22 0.00113035
44 *176:59 *215:32 3.39192e-05
45 *176:71 *215:10 0.000137651
46 *181:44 *215:55 0.000307967
47 *188:22 *215:32 0.00050984
48 *193:36 *215:14 0.00161028
49 *200:16 *215:10 0.00043937
50 *207:12 *215:55 0.000159873
51 *211:31 *1052:A 7.36394e-05
52 *211:35 *1052:A 0.000737258
53 *211:35 *215:18 0.000562805
*RES
1 *1094:X *215:10 44.75 
2 *215:10 *215:14 46.4857 
3 *215:14 *215:18 21.3386 
4 *215:18 *215:22 30.9914 
5 *215:22 *215:32 29.2307 
6 *215:32 *215:40 37.8064 
7 *215:40 *1018:A 39.0979 
8 *215:40 *215:55 32.3586 
9 *215:55 *1040:A 23 
10 *215:32 *1051:A 23 
11 *215:22 *1029:A 38 
12 *215:18 *1052:A 32.9221 
*END

*D_NET *216 0.00289197
*CONN
*I *1095:A I *D sky130_fd_sc_hd__buf_1
*I *1085:X O *D sky130_fd_sc_hd__clkbuf_1
*CAP
1 *1095:A 0
2 *1085:X 0
3 *216:14 0.000999225
4 *216:6 0.000999225
5 *216:14 *217:16 0.000402983
6 *20:104 *216:14 0.000151324
7 *39:14 *216:14 0
8 *74:14 *216:14 0
9 *108:8 *216:14 0
10 *198:77 *216:14 7.46522e-05
11 *206:41 *216:14 7.28792e-05
12 *210:34 *216:14 0.000191678
*RES
1 *1085:X *216:6 38 
2 *216:6 *216:14 34.14 
3 *216:14 *1095:A 23 
*END

*D_NET *217 0.00692419
*CONN
*I *1096:A I *D sky130_fd_sc_hd__buf_1
*I *1011:Y O *D sky130_fd_sc_hd__nor2_1
*CAP
1 *1096:A 0.000343237
2 *1011:Y 0.00015242
3 *217:16 0.00166984
4 *217:8 0.00147902
5 *39:14 *217:16 0
6 *74:14 *217:16 0
7 *86:93 *217:8 0.000181801
8 *111:14 *217:16 0.000745874
9 *117:29 *217:16 0
10 *117:39 *217:16 0.000578072
11 *123:14 *217:16 0
12 *173:72 *217:16 0.00012381
13 *173:90 *217:8 2.46906e-05
14 *173:90 *217:16 0.000126122
15 *198:77 *217:16 0.000249153
16 *199:80 *217:16 0.000528076
17 *210:22 *217:16 0.000319086
18 *216:14 *217:16 0.000402983
*RES
1 *1011:Y *217:8 40.5271 
2 *217:8 *217:16 49.365 
3 *217:16 *1096:A 27.9093 
*END

*D_NET *218 0.00722946
*CONN
*I *1097:A I *D sky130_fd_sc_hd__buf_1
*I *1015:Y O *D sky130_fd_sc_hd__a21oi_1
*CAP
1 *1097:A 0.000766058
2 *1015:Y 0.00092179
3 *218:16 0.0014171
4 *218:10 0.00157284
5 *218:10 *220:31 0.000125812
6 *965:B1 *218:10 0.000117078
7 *41:16 *1097:A 0.000774277
8 *50:12 *218:16 5.58152e-06
9 *70:16 *218:16 0.000304835
10 *107:10 *218:10 0.000234542
11 *175:157 *218:16 0
12 *176:46 *218:16 0
13 *190:28 *218:10 1.47709e-05
14 *202:26 *218:16 0.000666698
15 *207:18 *1097:A 0.000308082
*RES
1 *1015:Y *218:10 37.1271 
2 *218:10 *218:16 44.5829 
3 *218:16 *1097:A 39.3436 
*END

*D_NET *219 0.012084
*CONN
*I *1098:A I *D sky130_fd_sc_hd__buf_1
*I *1085:A I *D sky130_fd_sc_hd__clkbuf_1
*I *1014:Y O *D sky130_fd_sc_hd__a21boi_1
*CAP
1 *1098:A 0.000384475
2 *1085:A 0
3 *1014:Y 0.000497357
4 *219:16 0.00219043
5 *219:12 0.00180596
6 *219:10 0.000497357
7 *219:10 *220:24 5.82853e-05
8 *903:C *219:16 0.000501782
9 *950:B *219:16 0.000265234
10 *45:10 *219:10 0.000596918
11 *77:16 *219:10 0.000137651
12 *94:8 *219:16 0.00016051
13 *103:102 *219:10 9.48994e-06
14 *130:8 *219:16 0.000139754
15 *146:116 *219:16 8.73233e-05
16 *176:40 *219:16 0.0029549
17 *188:75 *219:16 0.00118569
18 *199:18 *219:10 0.000249958
19 *208:78 *219:16 9.41704e-05
20 *209:44 *219:16 0.000226226
21 *215:40 *219:10 4.05745e-05
*RES
1 *1014:Y *219:10 48.1707 
2 *219:10 *219:12 15 
3 *219:12 *219:16 46.3793 
4 *219:16 *1085:A 23 
5 *219:16 *1098:A 29.3386 
*END

*D_NET *220 0.0141688
*CONN
*I *1099:A I *D sky130_fd_sc_hd__buf_1
*I *1014:B1_N I *D sky130_fd_sc_hd__a21boi_1
*I *1013:X O *D sky130_fd_sc_hd__buf_1
*CAP
1 *1099:A 0
2 *1014:B1_N 0
3 *1013:X 0
4 *220:37 9.08452e-05
5 *220:31 0.00299631
6 *220:24 0.000972027
7 *220:10 0.00475239
8 *220:6 0.0008749
9 seg[4] *220:37 1.27424e-05
10 *965:B1 *220:31 5.41195e-05
11 *1015:A2 *220:31 1.10658e-05
12 *1073:RESET_B *220:10 0.000111941
13 *1078:RESET_B *220:10 0.000276094
14 *20:18 *220:10 0
15 *20:50 *220:10 0
16 *53:22 *220:10 2.07642e-05
17 *63:18 *220:24 5.58534e-05
18 *64:10 *220:10 3.82032e-05
19 *69:10 *220:37 3.72716e-05
20 *77:16 *220:24 0.00126687
21 *77:16 *220:31 0.00046348
22 *94:50 *220:10 0.000483922
23 *107:10 *220:31 1.75605e-05
24 *175:14 *220:24 0.000186038
25 *177:148 *220:31 0.000139692
26 *190:14 *220:10 1.0092e-05
27 *190:20 *220:10 0.000493567
28 *190:28 *220:31 4.96207e-05
29 *198:51 *220:31 0.000178517
30 *204:8 *220:24 1.44897e-05
31 *206:28 *220:31 2.02872e-05
32 *215:40 *220:24 0.000157111
33 *215:55 *220:10 0.000198954
34 *218:10 *220:31 0.000125812
35 *219:10 *220:24 5.82853e-05
*RES
1 *1013:X *220:6 38 
2 *220:6 *220:10 33.1043 
3 *220:10 *220:24 47.0271 
4 *220:24 *1014:B1_N 23 
5 *220:10 *220:31 37.3064 
6 *220:31 *220:37 31.9057 
7 *220:37 *1099:A 23 
*END

*D_NET *221 0.0203645
*CONN
*I *1100:A I *D sky130_fd_sc_hd__buf_1
*I *1016:Y O *D sky130_fd_sc_hd__inv_2
*CAP
1 *1100:A 0
2 *1016:Y 0.00032504
3 *221:22 0.00600862
4 *221:12 0.00633366
5 seg[5] *221:22 1.20476e-05
6 *921:C *221:22 0.00018029
7 *995:A *221:22 0.000238622
8 *1074:RESET_B *221:22 0
9 *26:16 *221:12 2.75733e-06
10 *26:16 *221:22 0
11 *26:24 *221:22 0.000127098
12 *63:18 *221:22 0.00296626
13 *103:130 *221:22 0.000102203
14 *119:24 *221:22 3.9563e-05
15 *121:14 *221:12 0.000370596
16 *121:14 *221:22 0.00298602
17 *126:16 *221:22 0.000154494
18 *126:37 *221:22 0.0002458
19 *163:8 *221:12 6.47558e-05
20 *175:28 *221:22 0.000206687
*RES
1 *1016:Y *221:12 45.1982 
2 *221:12 *221:22 49.135 
3 *221:22 *1100:A 23 
*END

*D_NET *222 0.0119002
*CONN
*I *1101:A I *D sky130_fd_sc_hd__buf_1
*I *1017:Y O *D sky130_fd_sc_hd__a21oi_1
*CAP
1 *1101:A 0
2 *1017:Y 0.000372111
3 *222:22 0.00243342
4 *222:16 0.00392639
5 *222:12 0.00205119
6 *222:8 0.000930324
7 seg[6] *222:22 1.27424e-05
8 *889:B *222:12 0
9 *1024:A *222:8 7.93848e-06
10 *53:8 *222:8 0.000138859
11 *162:54 *222:12 5.93705e-05
12 *183:145 *222:12 0
13 *194:71 *222:12 0
14 *195:83 *222:16 0.00196789
15 *195:89 *222:12 0
*RES
1 *1017:Y *222:8 43.3857 
2 *222:8 *222:12 23.5964 
3 *222:12 *222:16 36.6125 
4 *222:16 *222:22 47.7804 
5 *222:22 *1101:A 38 
*END
