*SPEF "ieee 1481-1999"
*DESIGN "TopModule"
*DATE "22:37:28 Saturday May 24, 2025"
*VENDOR "The OpenROAD Project"
*PROGRAM "OpenROAD"
*VERSION "b16bda7e82721d10566ff7e2b68f1ff0be9f9e38"
*DESIGN_FLOW "NAME_SCOPE LOCAL" "PIN_CAP NONE"
*DIVIDER /
*DELIMITER :
*BUS_DELIMITER []
*T_UNIT 1 NS
*C_UNIT 1 PF
*R_UNIT 1 OHM
*L_UNIT 1 HENRY

*NAME_MAP
*3 net9
*4 net10
*5 net11
*6 net12
*7 net13
*8 net14
*9 net15
*10 net16
*11 clk
*12 rst
*13 seg[0]
*14 seg[1]
*15 seg[2]
*16 seg[3]
*17 seg[4]
*18 seg[5]
*19 seg[6]
*20 _000_
*21 _001_
*22 _002_
*23 _003_
*24 _004_
*25 _005_
*26 _006_
*27 _007_
*28 _008_
*29 _009_
*30 _010_
*31 _011_
*32 _012_
*33 _013_
*34 _014_
*35 _015_
*36 _016_
*37 _017_
*38 _018_
*39 _019_
*40 _020_
*41 _021_
*42 _022_
*43 _023_
*44 _024_
*45 _025_
*46 _026_
*47 _027_
*48 _028_
*49 _029_
*50 _030_
*51 _031_
*52 _032_
*53 _033_
*54 _034_
*55 _035_
*56 _036_
*57 _037_
*58 _038_
*59 _039_
*60 _040_
*61 _041_
*62 _042_
*63 _043_
*64 _044_
*65 _045_
*66 _046_
*67 _047_
*68 _048_
*69 _049_
*70 _050_
*71 _051_
*72 _052_
*73 _053_
*74 _054_
*75 _055_
*76 _056_
*77 _057_
*78 _058_
*79 _059_
*80 _060_
*81 _061_
*82 _062_
*83 _063_
*84 _064_
*85 _065_
*86 _066_
*87 _067_
*88 _068_
*89 _069_
*90 _070_
*91 _071_
*92 _072_
*93 _073_
*94 _074_
*95 _075_
*96 _076_
*97 _077_
*98 _078_
*99 _079_
*100 _080_
*101 _081_
*102 _082_
*103 _083_
*104 _084_
*105 _085_
*106 _086_
*107 _087_
*108 _088_
*109 _089_
*110 _090_
*111 _091_
*112 _092_
*113 _093_
*114 _094_
*115 _095_
*116 _096_
*117 _097_
*118 _098_
*119 _099_
*120 _100_
*121 _101_
*122 _102_
*123 _103_
*124 _104_
*125 _105_
*126 _106_
*127 _107_
*128 _108_
*129 _109_
*130 _110_
*131 _111_
*132 _112_
*133 _113_
*134 _114_
*135 _115_
*136 _116_
*137 _117_
*138 _118_
*139 _119_
*140 _120_
*141 _121_
*142 _122_
*143 _123_
*144 _124_
*145 _125_
*146 _126_
*147 _127_
*148 _128_
*149 _129_
*150 _130_
*151 _131_
*152 _132_
*153 _133_
*154 _134_
*155 _135_
*156 _136_
*157 _137_
*158 _138_
*159 _139_
*160 _140_
*161 _141_
*162 _142_
*163 _143_
*164 _144_
*165 _145_
*166 _146_
*167 _147_
*168 _148_
*169 _149_
*170 _150_
*171 _151_
*172 _152_
*173 _153_
*174 _154_
*175 _155_
*176 _156_
*177 _157_
*178 clknet_0_clk
*179 clknet_2_0__leaf_clk
*180 clknet_2_1__leaf_clk
*181 clknet_2_2__leaf_clk
*182 clknet_2_3__leaf_clk
*183 counter\.count\[0\]
*184 counter\.count\[1\]
*185 counter\.count\[2\]
*186 counter\.count\[3\]
*187 counter\.one_second_counter\[0\]
*188 counter\.one_second_counter\[10\]
*189 counter\.one_second_counter\[11\]
*190 counter\.one_second_counter\[12\]
*191 counter\.one_second_counter\[13\]
*192 counter\.one_second_counter\[14\]
*193 counter\.one_second_counter\[15\]
*194 counter\.one_second_counter\[16\]
*195 counter\.one_second_counter\[17\]
*196 counter\.one_second_counter\[18\]
*197 counter\.one_second_counter\[19\]
*198 counter\.one_second_counter\[1\]
*199 counter\.one_second_counter\[20\]
*200 counter\.one_second_counter\[21\]
*201 counter\.one_second_counter\[22\]
*202 counter\.one_second_counter\[23\]
*203 counter\.one_second_counter\[24\]
*204 counter\.one_second_counter\[25\]
*205 counter\.one_second_counter\[26\]
*206 counter\.one_second_counter\[2\]
*207 counter\.one_second_counter\[3\]
*208 counter\.one_second_counter\[4\]
*209 counter\.one_second_counter\[5\]
*210 counter\.one_second_counter\[6\]
*211 counter\.one_second_counter\[7\]
*212 counter\.one_second_counter\[8\]
*213 counter\.one_second_counter\[9\]
*214 counter\.one_second_enable
*215 net1
*216 net2
*217 net3
*218 net4
*219 net5
*220 net6
*221 net7
*222 net8
*223 ANTENNA_1
*224 ANTENNA_2
*225 ANTENNA_3
*226 FILLER_0_0_110
*227 FILLER_0_0_113
*228 FILLER_0_0_125
*229 FILLER_0_0_137
*230 FILLER_0_0_141
*231 FILLER_0_0_15
*232 FILLER_0_0_153
*233 FILLER_0_0_165
*234 FILLER_0_0_169
*235 FILLER_0_0_181
*236 FILLER_0_0_27
*237 FILLER_0_0_29
*238 FILLER_0_0_3
*239 FILLER_0_0_45
*240 FILLER_0_0_53
*241 FILLER_0_0_57
*242 FILLER_0_0_67
*243 FILLER_0_0_79
*244 FILLER_0_0_83
*245 FILLER_0_0_85
*246 FILLER_0_0_98
*247 FILLER_0_10_105
*248 FILLER_0_10_110
*249 FILLER_0_10_118
*250 FILLER_0_10_141
*251 FILLER_0_10_15
*252 FILLER_0_10_153
*253 FILLER_0_10_165
*254 FILLER_0_10_177
*255 FILLER_0_10_185
*256 FILLER_0_10_27
*257 FILLER_0_10_29
*258 FILLER_0_10_3
*259 FILLER_0_10_41
*260 FILLER_0_10_45
*261 FILLER_0_10_69
*262 FILLER_0_10_81
*263 FILLER_0_10_85
*264 FILLER_0_10_97
*265 FILLER_0_11_107
*266 FILLER_0_11_111
*267 FILLER_0_11_113
*268 FILLER_0_11_130
*269 FILLER_0_11_142
*270 FILLER_0_11_146
*271 FILLER_0_11_15
*272 FILLER_0_11_153
*273 FILLER_0_11_162
*274 FILLER_0_11_169
*275 FILLER_0_11_178
*276 FILLER_0_11_27
*277 FILLER_0_11_3
*278 FILLER_0_11_39
*279 FILLER_0_11_54
*280 FILLER_0_11_84
*281 FILLER_0_11_9
*282 FILLER_0_12_105
*283 FILLER_0_12_113
*284 FILLER_0_12_139
*285 FILLER_0_12_141
*286 FILLER_0_12_15
*287 FILLER_0_12_153
*288 FILLER_0_12_165
*289 FILLER_0_12_177
*290 FILLER_0_12_181
*291 FILLER_0_12_188
*292 FILLER_0_12_26
*293 FILLER_0_12_29
*294 FILLER_0_12_3
*295 FILLER_0_12_41
*296 FILLER_0_12_53
*297 FILLER_0_12_77
*298 FILLER_0_12_83
*299 FILLER_0_12_90
*300 FILLER_0_12_98
*301 FILLER_0_13_107
*302 FILLER_0_13_111
*303 FILLER_0_13_133
*304 FILLER_0_13_141
*305 FILLER_0_13_148
*306 FILLER_0_13_154
*307 FILLER_0_13_166
*308 FILLER_0_13_169
*309 FILLER_0_13_21
*310 FILLER_0_13_3
*311 FILLER_0_13_33
*312 FILLER_0_13_45
*313 FILLER_0_13_53
*314 FILLER_0_13_57
*315 FILLER_0_13_69
*316 FILLER_0_13_75
*317 FILLER_0_13_79
*318 FILLER_0_13_83
*319 FILLER_0_14_112
*320 FILLER_0_14_125
*321 FILLER_0_14_136
*322 FILLER_0_14_141
*323 FILLER_0_14_15
*324 FILLER_0_14_153
*325 FILLER_0_14_165
*326 FILLER_0_14_177
*327 FILLER_0_14_183
*328 FILLER_0_14_27
*329 FILLER_0_14_29
*330 FILLER_0_14_3
*331 FILLER_0_14_41
*332 FILLER_0_14_49
*333 FILLER_0_14_57
*334 FILLER_0_14_69
*335 FILLER_0_14_73
*336 FILLER_0_14_77
*337 FILLER_0_14_83
*338 FILLER_0_14_85
*339 FILLER_0_14_97
*340 FILLER_0_15_10
*341 FILLER_0_15_107
*342 FILLER_0_15_111
*343 FILLER_0_15_113
*344 FILLER_0_15_121
*345 FILLER_0_15_146
*346 FILLER_0_15_158
*347 FILLER_0_15_166
*348 FILLER_0_15_169
*349 FILLER_0_15_176
*350 FILLER_0_15_188
*351 FILLER_0_15_22
*352 FILLER_0_15_3
*353 FILLER_0_15_34
*354 FILLER_0_15_46
*355 FILLER_0_15_54
*356 FILLER_0_15_57
*357 FILLER_0_15_62
*358 FILLER_0_15_74
*359 FILLER_0_16_109
*360 FILLER_0_16_113
*361 FILLER_0_16_125
*362 FILLER_0_16_137
*363 FILLER_0_16_141
*364 FILLER_0_16_15
*365 FILLER_0_16_153
*366 FILLER_0_16_165
*367 FILLER_0_16_177
*368 FILLER_0_16_183
*369 FILLER_0_16_27
*370 FILLER_0_16_29
*371 FILLER_0_16_3
*372 FILLER_0_16_41
*373 FILLER_0_16_53
*374 FILLER_0_16_61
*375 FILLER_0_16_85
*376 FILLER_0_16_97
*377 FILLER_0_17_103
*378 FILLER_0_17_111
*379 FILLER_0_17_118
*380 FILLER_0_17_12
*381 FILLER_0_17_130
*382 FILLER_0_17_142
*383 FILLER_0_17_154
*384 FILLER_0_17_163
*385 FILLER_0_17_167
*386 FILLER_0_17_169
*387 FILLER_0_17_181
*388 FILLER_0_17_189
*389 FILLER_0_17_20
*390 FILLER_0_17_28
*391 FILLER_0_17_3
*392 FILLER_0_17_40
*393 FILLER_0_17_52
*394 FILLER_0_17_57
*395 FILLER_0_17_63
*396 FILLER_0_17_67
*397 FILLER_0_17_79
*398 FILLER_0_17_91
*399 FILLER_0_18_109
*400 FILLER_0_18_120
*401 FILLER_0_18_126
*402 FILLER_0_18_130
*403 FILLER_0_18_138
*404 FILLER_0_18_141
*405 FILLER_0_18_153
*406 FILLER_0_18_157
*407 FILLER_0_18_169
*408 FILLER_0_18_181
*409 FILLER_0_18_19
*410 FILLER_0_18_27
*411 FILLER_0_18_29
*412 FILLER_0_18_3
*413 FILLER_0_18_48
*414 FILLER_0_18_60
*415 FILLER_0_18_72
*416 FILLER_0_18_85
*417 FILLER_0_18_97
*418 FILLER_0_19_102
*419 FILLER_0_19_110
*420 FILLER_0_19_113
*421 FILLER_0_19_15
*422 FILLER_0_19_162
*423 FILLER_0_19_169
*424 FILLER_0_19_181
*425 FILLER_0_19_189
*426 FILLER_0_19_24
*427 FILLER_0_19_3
*428 FILLER_0_19_36
*429 FILLER_0_19_48
*430 FILLER_0_19_81
*431 FILLER_0_19_85
*432 FILLER_0_19_90
*433 FILLER_0_1_110
*434 FILLER_0_1_121
*435 FILLER_0_1_129
*436 FILLER_0_1_13
*437 FILLER_0_1_135
*438 FILLER_0_1_147
*439 FILLER_0_1_155
*440 FILLER_0_1_21
*441 FILLER_0_1_26
*442 FILLER_0_1_3
*443 FILLER_0_1_38
*444 FILLER_0_1_44
*445 FILLER_0_1_84
*446 FILLER_0_1_92
*447 FILLER_0_1_98
*448 FILLER_0_20_104
*449 FILLER_0_20_116
*450 FILLER_0_20_128
*451 FILLER_0_20_141
*452 FILLER_0_20_15
*453 FILLER_0_20_165
*454 FILLER_0_20_177
*455 FILLER_0_20_185
*456 FILLER_0_20_27
*457 FILLER_0_20_29
*458 FILLER_0_20_3
*459 FILLER_0_20_41
*460 FILLER_0_20_53
*461 FILLER_0_20_65
*462 FILLER_0_20_77
*463 FILLER_0_20_83
*464 FILLER_0_20_85
*465 FILLER_0_20_92
*466 FILLER_0_21_109
*467 FILLER_0_21_113
*468 FILLER_0_21_125
*469 FILLER_0_21_137
*470 FILLER_0_21_149
*471 FILLER_0_21_161
*472 FILLER_0_21_167
*473 FILLER_0_21_169
*474 FILLER_0_21_181
*475 FILLER_0_21_189
*476 FILLER_0_21_34
*477 FILLER_0_21_42
*478 FILLER_0_21_48
*479 FILLER_0_21_57
*480 FILLER_0_21_61
*481 FILLER_0_21_7
*482 FILLER_0_21_73
*483 FILLER_0_21_85
*484 FILLER_0_22_124
*485 FILLER_0_22_136
*486 FILLER_0_22_146
*487 FILLER_0_22_158
*488 FILLER_0_22_183
*489 FILLER_0_22_29
*490 FILLER_0_22_3
*491 FILLER_0_22_41
*492 FILLER_0_22_68
*493 FILLER_0_22_80
*494 FILLER_0_22_90
*495 FILLER_0_22_94
*496 FILLER_0_23_105
*497 FILLER_0_23_11
*498 FILLER_0_23_111
*499 FILLER_0_23_113
*500 FILLER_0_23_125
*501 FILLER_0_23_137
*502 FILLER_0_23_149
*503 FILLER_0_23_153
*504 FILLER_0_23_16
*505 FILLER_0_23_165
*506 FILLER_0_23_169
*507 FILLER_0_23_181
*508 FILLER_0_23_187
*509 FILLER_0_23_28
*510 FILLER_0_23_3
*511 FILLER_0_23_39
*512 FILLER_0_23_47
*513 FILLER_0_23_57
*514 FILLER_0_23_61
*515 FILLER_0_24_104
*516 FILLER_0_24_116
*517 FILLER_0_24_132
*518 FILLER_0_24_141
*519 FILLER_0_24_153
*520 FILLER_0_24_161
*521 FILLER_0_24_178
*522 FILLER_0_24_188
*523 FILLER_0_24_19
*524 FILLER_0_24_27
*525 FILLER_0_24_29
*526 FILLER_0_24_35
*527 FILLER_0_24_47
*528 FILLER_0_24_7
*529 FILLER_0_24_92
*530 FILLER_0_25_107
*531 FILLER_0_25_111
*532 FILLER_0_25_136
*533 FILLER_0_25_148
*534 FILLER_0_25_160
*535 FILLER_0_25_172
*536 FILLER_0_25_180
*537 FILLER_0_25_186
*538 FILLER_0_25_26
*539 FILLER_0_25_51
*540 FILLER_0_25_55
*541 FILLER_0_25_57
*542 FILLER_0_25_61
*543 FILLER_0_25_70
*544 FILLER_0_25_76
*545 FILLER_0_25_88
*546 FILLER_0_26_115
*547 FILLER_0_26_127
*548 FILLER_0_26_139
*549 FILLER_0_26_141
*550 FILLER_0_26_145
*551 FILLER_0_26_15
*552 FILLER_0_26_150
*553 FILLER_0_26_156
*554 FILLER_0_26_188
*555 FILLER_0_26_22
*556 FILLER_0_26_29
*557 FILLER_0_26_3
*558 FILLER_0_26_41
*559 FILLER_0_26_53
*560 FILLER_0_26_66
*561 FILLER_0_26_74
*562 FILLER_0_26_83
*563 FILLER_0_26_85
*564 FILLER_0_26_99
*565 FILLER_0_27_113
*566 FILLER_0_27_125
*567 FILLER_0_27_137
*568 FILLER_0_27_141
*569 FILLER_0_27_15
*570 FILLER_0_27_154
*571 FILLER_0_27_166
*572 FILLER_0_27_169
*573 FILLER_0_27_181
*574 FILLER_0_27_27
*575 FILLER_0_27_29
*576 FILLER_0_27_3
*577 FILLER_0_27_41
*578 FILLER_0_27_78
*579 FILLER_0_27_82
*580 FILLER_0_27_85
*581 FILLER_0_2_109
*582 FILLER_0_2_118
*583 FILLER_0_2_139
*584 FILLER_0_2_144
*585 FILLER_0_2_15
*586 FILLER_0_2_156
*587 FILLER_0_2_168
*588 FILLER_0_2_174
*589 FILLER_0_2_186
*590 FILLER_0_2_27
*591 FILLER_0_2_3
*592 FILLER_0_2_40
*593 FILLER_0_2_52
*594 FILLER_0_2_60
*595 FILLER_0_2_85
*596 FILLER_0_2_97
*597 FILLER_0_3_102
*598 FILLER_0_3_110
*599 FILLER_0_3_126
*600 FILLER_0_3_13
*601 FILLER_0_3_134
*602 FILLER_0_3_149
*603 FILLER_0_3_165
*604 FILLER_0_3_169
*605 FILLER_0_3_181
*606 FILLER_0_3_189
*607 FILLER_0_3_3
*608 FILLER_0_3_39
*609 FILLER_0_3_51
*610 FILLER_0_3_55
*611 FILLER_0_3_57
*612 FILLER_0_3_65
*613 FILLER_0_3_70
*614 FILLER_0_3_78
*615 FILLER_0_3_9
*616 FILLER_0_3_90
*617 FILLER_0_4_122
*618 FILLER_0_4_134
*619 FILLER_0_4_15
*620 FILLER_0_4_152
*621 FILLER_0_4_164
*622 FILLER_0_4_176
*623 FILLER_0_4_184
*624 FILLER_0_4_27
*625 FILLER_0_4_29
*626 FILLER_0_4_3
*627 FILLER_0_4_37
*628 FILLER_0_4_42
*629 FILLER_0_4_54
*630 FILLER_0_4_67
*631 FILLER_0_4_71
*632 FILLER_0_4_81
*633 FILLER_0_4_85
*634 FILLER_0_4_97
*635 FILLER_0_5_102
*636 FILLER_0_5_110
*637 FILLER_0_5_113
*638 FILLER_0_5_122
*639 FILLER_0_5_134
*640 FILLER_0_5_146
*641 FILLER_0_5_15
*642 FILLER_0_5_158
*643 FILLER_0_5_162
*644 FILLER_0_5_166
*645 FILLER_0_5_169
*646 FILLER_0_5_181
*647 FILLER_0_5_189
*648 FILLER_0_5_27
*649 FILLER_0_5_3
*650 FILLER_0_5_36
*651 FILLER_0_5_40
*652 FILLER_0_5_52
*653 FILLER_0_5_57
*654 FILLER_0_5_74
*655 FILLER_0_5_86
*656 FILLER_0_5_94
*657 FILLER_0_6_11
*658 FILLER_0_6_110
*659 FILLER_0_6_122
*660 FILLER_0_6_134
*661 FILLER_0_6_141
*662 FILLER_0_6_153
*663 FILLER_0_6_16
*664 FILLER_0_6_161
*665 FILLER_0_6_165
*666 FILLER_0_6_173
*667 FILLER_0_6_177
*668 FILLER_0_6_185
*669 FILLER_0_6_20
*670 FILLER_0_6_24
*671 FILLER_0_6_29
*672 FILLER_0_6_41
*673 FILLER_0_6_45
*674 FILLER_0_6_57
*675 FILLER_0_6_69
*676 FILLER_0_6_81
*677 FILLER_0_6_85
*678 FILLER_0_6_98
*679 FILLER_0_7_102
*680 FILLER_0_7_110
*681 FILLER_0_7_113
*682 FILLER_0_7_125
*683 FILLER_0_7_142
*684 FILLER_0_7_15
*685 FILLER_0_7_154
*686 FILLER_0_7_166
*687 FILLER_0_7_169
*688 FILLER_0_7_181
*689 FILLER_0_7_189
*690 FILLER_0_7_27
*691 FILLER_0_7_3
*692 FILLER_0_7_54
*693 FILLER_0_7_57
*694 FILLER_0_7_61
*695 FILLER_0_7_83
*696 FILLER_0_7_90
*697 FILLER_0_8_111
*698 FILLER_0_8_117
*699 FILLER_0_8_124
*700 FILLER_0_8_13
*701 FILLER_0_8_136
*702 FILLER_0_8_141
*703 FILLER_0_8_147
*704 FILLER_0_8_159
*705 FILLER_0_8_171
*706 FILLER_0_8_183
*707 FILLER_0_8_23
*708 FILLER_0_8_27
*709 FILLER_0_8_29
*710 FILLER_0_8_3
*711 FILLER_0_8_49
*712 FILLER_0_8_61
*713 FILLER_0_8_74
*714 FILLER_0_8_82
*715 FILLER_0_8_85
*716 FILLER_0_9_103
*717 FILLER_0_9_111
*718 FILLER_0_9_113
*719 FILLER_0_9_121
*720 FILLER_0_9_126
*721 FILLER_0_9_135
*722 FILLER_0_9_142
*723 FILLER_0_9_15
*724 FILLER_0_9_153
*725 FILLER_0_9_165
*726 FILLER_0_9_177
*727 FILLER_0_9_187
*728 FILLER_0_9_27
*729 FILLER_0_9_3
*730 FILLER_0_9_32
*731 FILLER_0_9_44
*732 FILLER_0_9_57
*733 FILLER_0_9_69
*734 FILLER_0_9_81
*735 PHY_EDGE_ROW_0_Left_28
*736 PHY_EDGE_ROW_0_Right_0
*737 PHY_EDGE_ROW_10_Left_38
*738 PHY_EDGE_ROW_10_Right_10
*739 PHY_EDGE_ROW_11_Left_39
*740 PHY_EDGE_ROW_11_Right_11
*741 PHY_EDGE_ROW_12_Left_40
*742 PHY_EDGE_ROW_12_Right_12
*743 PHY_EDGE_ROW_13_Left_41
*744 PHY_EDGE_ROW_13_Right_13
*745 PHY_EDGE_ROW_14_Left_42
*746 PHY_EDGE_ROW_14_Right_14
*747 PHY_EDGE_ROW_15_Left_43
*748 PHY_EDGE_ROW_15_Right_15
*749 PHY_EDGE_ROW_16_Left_44
*750 PHY_EDGE_ROW_16_Right_16
*751 PHY_EDGE_ROW_17_Left_45
*752 PHY_EDGE_ROW_17_Right_17
*753 PHY_EDGE_ROW_18_Left_46
*754 PHY_EDGE_ROW_18_Right_18
*755 PHY_EDGE_ROW_19_Left_47
*756 PHY_EDGE_ROW_19_Right_19
*757 PHY_EDGE_ROW_1_Left_29
*758 PHY_EDGE_ROW_1_Right_1
*759 PHY_EDGE_ROW_20_Left_48
*760 PHY_EDGE_ROW_20_Right_20
*761 PHY_EDGE_ROW_21_Left_49
*762 PHY_EDGE_ROW_21_Right_21
*763 PHY_EDGE_ROW_22_Left_50
*764 PHY_EDGE_ROW_22_Right_22
*765 PHY_EDGE_ROW_23_Left_51
*766 PHY_EDGE_ROW_23_Right_23
*767 PHY_EDGE_ROW_24_Left_52
*768 PHY_EDGE_ROW_24_Right_24
*769 PHY_EDGE_ROW_25_Left_53
*770 PHY_EDGE_ROW_25_Right_25
*771 PHY_EDGE_ROW_26_Left_54
*772 PHY_EDGE_ROW_26_Right_26
*773 PHY_EDGE_ROW_27_Left_55
*774 PHY_EDGE_ROW_27_Right_27
*775 PHY_EDGE_ROW_2_Left_30
*776 PHY_EDGE_ROW_2_Right_2
*777 PHY_EDGE_ROW_3_Left_31
*778 PHY_EDGE_ROW_3_Right_3
*779 PHY_EDGE_ROW_4_Left_32
*780 PHY_EDGE_ROW_4_Right_4
*781 PHY_EDGE_ROW_5_Left_33
*782 PHY_EDGE_ROW_5_Right_5
*783 PHY_EDGE_ROW_6_Left_34
*784 PHY_EDGE_ROW_6_Right_6
*785 PHY_EDGE_ROW_7_Left_35
*786 PHY_EDGE_ROW_7_Right_7
*787 PHY_EDGE_ROW_8_Left_36
*788 PHY_EDGE_ROW_8_Right_8
*789 PHY_EDGE_ROW_9_Left_37
*790 PHY_EDGE_ROW_9_Right_9
*791 TAP_TAPCELL_ROW_0_56
*792 TAP_TAPCELL_ROW_0_57
*793 TAP_TAPCELL_ROW_0_58
*794 TAP_TAPCELL_ROW_0_59
*795 TAP_TAPCELL_ROW_0_60
*796 TAP_TAPCELL_ROW_0_61
*797 TAP_TAPCELL_ROW_10_89
*798 TAP_TAPCELL_ROW_10_90
*799 TAP_TAPCELL_ROW_10_91
*800 TAP_TAPCELL_ROW_11_92
*801 TAP_TAPCELL_ROW_11_93
*802 TAP_TAPCELL_ROW_11_94
*803 TAP_TAPCELL_ROW_12_95
*804 TAP_TAPCELL_ROW_12_96
*805 TAP_TAPCELL_ROW_12_97
*806 TAP_TAPCELL_ROW_13_100
*807 TAP_TAPCELL_ROW_13_98
*808 TAP_TAPCELL_ROW_13_99
*809 TAP_TAPCELL_ROW_14_101
*810 TAP_TAPCELL_ROW_14_102
*811 TAP_TAPCELL_ROW_14_103
*812 TAP_TAPCELL_ROW_15_104
*813 TAP_TAPCELL_ROW_15_105
*814 TAP_TAPCELL_ROW_15_106
*815 TAP_TAPCELL_ROW_16_107
*816 TAP_TAPCELL_ROW_16_108
*817 TAP_TAPCELL_ROW_16_109
*818 TAP_TAPCELL_ROW_17_110
*819 TAP_TAPCELL_ROW_17_111
*820 TAP_TAPCELL_ROW_17_112
*821 TAP_TAPCELL_ROW_18_113
*822 TAP_TAPCELL_ROW_18_114
*823 TAP_TAPCELL_ROW_18_115
*824 TAP_TAPCELL_ROW_19_116
*825 TAP_TAPCELL_ROW_19_117
*826 TAP_TAPCELL_ROW_19_118
*827 TAP_TAPCELL_ROW_1_62
*828 TAP_TAPCELL_ROW_1_63
*829 TAP_TAPCELL_ROW_1_64
*830 TAP_TAPCELL_ROW_20_119
*831 TAP_TAPCELL_ROW_20_120
*832 TAP_TAPCELL_ROW_20_121
*833 TAP_TAPCELL_ROW_21_122
*834 TAP_TAPCELL_ROW_21_123
*835 TAP_TAPCELL_ROW_21_124
*836 TAP_TAPCELL_ROW_22_125
*837 TAP_TAPCELL_ROW_22_126
*838 TAP_TAPCELL_ROW_22_127
*839 TAP_TAPCELL_ROW_23_128
*840 TAP_TAPCELL_ROW_23_129
*841 TAP_TAPCELL_ROW_23_130
*842 TAP_TAPCELL_ROW_24_131
*843 TAP_TAPCELL_ROW_24_132
*844 TAP_TAPCELL_ROW_24_133
*845 TAP_TAPCELL_ROW_25_134
*846 TAP_TAPCELL_ROW_25_135
*847 TAP_TAPCELL_ROW_25_136
*848 TAP_TAPCELL_ROW_26_137
*849 TAP_TAPCELL_ROW_26_138
*850 TAP_TAPCELL_ROW_26_139
*851 TAP_TAPCELL_ROW_27_140
*852 TAP_TAPCELL_ROW_27_141
*853 TAP_TAPCELL_ROW_27_142
*854 TAP_TAPCELL_ROW_27_143
*855 TAP_TAPCELL_ROW_27_144
*856 TAP_TAPCELL_ROW_27_145
*857 TAP_TAPCELL_ROW_2_65
*858 TAP_TAPCELL_ROW_2_66
*859 TAP_TAPCELL_ROW_2_67
*860 TAP_TAPCELL_ROW_3_68
*861 TAP_TAPCELL_ROW_3_69
*862 TAP_TAPCELL_ROW_3_70
*863 TAP_TAPCELL_ROW_4_71
*864 TAP_TAPCELL_ROW_4_72
*865 TAP_TAPCELL_ROW_4_73
*866 TAP_TAPCELL_ROW_5_74
*867 TAP_TAPCELL_ROW_5_75
*868 TAP_TAPCELL_ROW_5_76
*869 TAP_TAPCELL_ROW_6_77
*870 TAP_TAPCELL_ROW_6_78
*871 TAP_TAPCELL_ROW_6_79
*872 TAP_TAPCELL_ROW_7_80
*873 TAP_TAPCELL_ROW_7_81
*874 TAP_TAPCELL_ROW_7_82
*875 TAP_TAPCELL_ROW_8_83
*876 TAP_TAPCELL_ROW_8_84
*877 TAP_TAPCELL_ROW_8_85
*878 TAP_TAPCELL_ROW_9_86
*879 TAP_TAPCELL_ROW_9_87
*880 TAP_TAPCELL_ROW_9_88
*881 TopModule_10
*882 TopModule_11
*883 TopModule_12
*884 TopModule_13
*885 TopModule_14
*886 TopModule_15
*887 TopModule_16
*888 TopModule_9
*889 _158_
*890 _159_
*891 _160_
*892 _161_
*893 _162_
*894 _163_
*895 _164_
*896 _165_
*897 _166_
*898 _167_
*899 _168_
*900 _169_
*901 _170_
*902 _171_
*903 _172_
*904 _173_
*905 _174_
*906 _175_
*907 _176_
*908 _177_
*909 _178_
*910 _179_
*911 _180_
*912 _181_
*913 _182_
*914 _183_
*915 _184_
*916 _185_
*917 _186_
*918 _187_
*919 _188_
*920 _189_
*921 _190_
*922 _191_
*923 _192_
*924 _193_
*925 _194_
*926 _195_
*927 _196_
*928 _197_
*929 _198_
*930 _199_
*931 _200_
*932 _201_
*933 _202_
*934 _203_
*935 _204_
*936 _205_
*937 _206_
*938 _207_
*939 _208_
*940 _209_
*941 _210_
*942 _211_
*943 _212_
*944 _213_
*945 _214_
*946 _215_
*947 _216_
*948 _217_
*949 _218_
*950 _219_
*951 _220_
*952 _221_
*953 _222_
*954 _223_
*955 _224_
*956 _225_
*957 _226_
*958 _227_
*959 _228_
*960 _229_
*961 _230_
*962 _231_
*963 _232_
*964 _233_
*965 _234_
*966 _235_
*967 _236_
*968 _237_
*969 _238_
*970 _239_
*971 _240_
*972 _241_
*973 _242_
*974 _243_
*975 _244_
*976 _245_
*977 _246_
*978 _247_
*979 _248_
*980 _249_
*981 _250_
*982 _251_
*983 _252_
*984 _253_
*985 _254_
*986 _255_
*987 _256_
*988 _257_
*989 _258_
*990 _259_
*991 _260_
*992 _261_
*993 _262_
*994 _263_
*995 _264_
*996 _265_
*997 _266_
*998 _267_
*999 _268_
*1000 _269_
*1001 _270_
*1002 _271_
*1003 _272_
*1004 _273_
*1005 _274_
*1006 _275_
*1007 _276_
*1008 _277_
*1009 _278_
*1010 _279_
*1011 _280_
*1012 _281_
*1013 _282_
*1014 _283_
*1015 _284_
*1016 _285_
*1017 _286_
*1018 _287_
*1019 _288_
*1020 _289_
*1021 _290_
*1022 _291_
*1023 _292_
*1024 _293_
*1025 _294_
*1026 _295_
*1027 _296_
*1028 _297_
*1029 _298_
*1030 _299_
*1031 _300_
*1032 _301_
*1033 _302_
*1034 _303_
*1035 _304_
*1036 _305_
*1037 _306_
*1038 _307_
*1039 _308_
*1040 _309_
*1041 _310_
*1042 _311_
*1043 _312_
*1044 _313_
*1045 _314_
*1046 _315_
*1047 _316_
*1048 _317_
*1049 _318_
*1050 _319_
*1051 _320_
*1052 _321_
*1053 _322_
*1054 _323_
*1055 _324_
*1056 _325_
*1057 _326_
*1058 _327_
*1059 _328_
*1060 _329_
*1061 _330_
*1062 _331_
*1063 _332_
*1064 _333_
*1065 _334_
*1066 _335_
*1067 _336_
*1068 _337_
*1069 _338_
*1070 _339_
*1071 _340_
*1072 _341_
*1073 _342_
*1074 _343_
*1075 _344_
*1076 _345_
*1077 _346_
*1078 _347_
*1079 _348_
*1080 _349_
*1081 _350_
*1082 _351_
*1083 _352_
*1084 _353_
*1085 _362_
*1086 clkbuf_0_clk
*1087 clkbuf_2_0__f_clk
*1088 clkbuf_2_1__f_clk
*1089 clkbuf_2_2__f_clk
*1090 clkbuf_2_3__f_clk
*1091 clkload0
*1092 clkload1
*1093 clkload2
*1094 input1
*1095 output2
*1096 output3
*1097 output4
*1098 output5
*1099 output6
*1100 output7
*1101 output8

*PORTS
an[0] O
an[1] O
an[2] O
an[3] O
an[4] O
an[5] O
an[6] O
an[7] O
clk I
rst I
seg[0] O
seg[1] O
seg[2] O
seg[3] O
seg[4] O
seg[5] O
seg[6] O

*D_NET *3 0.000597659
*CONN
*P an[0] O
*I *888:LO O *D sky130_fd_sc_hd__conb_1
*CAP
1 an[0] 0.000298829
2 *888:LO 0.000298829
3 an[0] an[1] 0
*RES
1 *888:LO an[0] 5.92503 
*END

*D_NET *4 0.00057052
*CONN
*P an[1] O
*I *881:HI O *D sky130_fd_sc_hd__conb_1
*CAP
1 an[1] 0.000254263
2 *881:HI 0.000254263
3 an[1] an[2] 0
4 an[1] *213:14 6.1994e-05
5 an[0] an[1] 0
*RES
1 *881:HI an[1] 5.41503 
*END

*D_NET *5 0.000893428
*CONN
*P an[2] O
*I *882:HI O *D sky130_fd_sc_hd__conb_1
*CAP
1 an[2] 0.00042688
2 *882:HI 0.00042688
3 an[2] an[3] 0
4 an[2] *933:B 3.96676e-05
5 an[2] *102:51 0
6 an[1] an[2] 0
*RES
1 *882:HI an[2] 5.19637 
*END

*D_NET *6 0.000522332
*CONN
*P an[3] O
*I *883:HI O *D sky130_fd_sc_hd__conb_1
*CAP
1 an[3] 0.000241859
2 *883:HI 0.000241859
3 an[3] an[4] 0
4 an[3] *69:12 1.88656e-05
5 an[3] *213:14 1.97486e-05
6 an[2] an[3] 0
*RES
1 *883:HI an[3] 4.90503 
*END

*D_NET *7 0.000509769
*CONN
*P an[4] O
*I *884:HI O *D sky130_fd_sc_hd__conb_1
*CAP
1 an[4] 0.000235578
2 *884:HI 0.000235578
3 an[4] an[5] 0
4 an[4] *69:12 1.88656e-05
5 an[4] *213:14 1.97486e-05
6 an[3] an[4] 0
*RES
1 *884:HI an[4] 4.90503 
*END

*D_NET *8 0.000497753
*CONN
*P an[5] O
*I *885:HI O *D sky130_fd_sc_hd__conb_1
*CAP
1 an[5] 0.000229162
2 *885:HI 0.000229162
3 an[5] an[6] 0
4 an[5] *69:12 1.88656e-05
5 an[5] *213:14 2.05641e-05
6 an[4] an[5] 0
*RES
1 *885:HI an[5] 4.90503 
*END

*D_NET *9 0.000551075
*CONN
*P an[6] O
*I *886:HI O *D sky130_fd_sc_hd__conb_1
*CAP
1 an[6] 0.000233021
2 *886:HI 0.000233021
3 an[6] an[7] 0
4 an[6] *69:12 4.13879e-05
5 an[6] *213:14 4.36438e-05
6 an[5] an[6] 0
*RES
1 *886:HI an[6] 5.16003 
*END

*D_NET *10 0.000738033
*CONN
*P an[7] O
*I *887:HI O *D sky130_fd_sc_hd__conb_1
*CAP
1 an[7] 0.000313512
2 *887:HI 0.000313512
3 an[7] seg[0] 0
4 an[7] *21:16 2.05641e-05
5 an[7] *102:51 1.88656e-05
6 an[7] *205:12 7.15795e-05
7 an[6] an[7] 0
*RES
1 *887:HI an[7] 5.07983 
*END

*D_NET *11 0.0124756
*CONN
*P clk I
*I *1086:A I *D sky130_fd_sc_hd__clkbuf_16
*CAP
1 clk 0.0044051
2 *1086:A 0.0044051
3 *1086:A *912:B1_N 0.000167203
4 *1086:A *952:A 0.000730963
5 *1086:A *991:A 0.00012323
6 *1086:A *1005:B 5.848e-05
7 *1086:A *1059:D 0.0014908
8 *1086:A *1068:D 0
9 *1086:A *1075:RESET_B 0
10 *1086:A *1078:RESET_B 0.000720973
11 *1086:A *1079:D 0
12 *1086:A *1081:RESET_B 0
13 *1086:A *159:24 4.36573e-06
14 *1086:A *166:69 7.43731e-05
15 *1086:A *176:118 0.000191975
16 *1086:A *196:18 0.000103057
*RES
1 clk *1086:A 16.3751 
*END

*D_NET *12 0.000586565
*CONN
*P rst I
*I *1094:A I *D sky130_fd_sc_hd__buf_2
*CAP
1 rst 0.000262838
2 *1094:A 0.000262838
3 *1094:A *1081:RESET_B 6.0889e-05
*RES
1 rst *1094:A 6.37677 
*END

*D_NET *13 0.000833037
*CONN
*P seg[0] O
*I *1095:X O *D sky130_fd_sc_hd__buf_1
*CAP
1 seg[0] 0.000390196
2 *1095:X 0.000390196
3 seg[0] seg[1] 0
4 seg[0] *920:A2 9.58678e-06
5 seg[0] *1079:RESET_B 1.96913e-05
6 seg[0] *177:80 2.33678e-05
7 an[7] seg[0] 0
*RES
1 *1095:X seg[0] 5.19637 
*END

*D_NET *14 0.000508732
*CONN
*P seg[1] O
*I *1096:X O *D sky130_fd_sc_hd__buf_1
*CAP
1 seg[1] 0.000235059
2 *1096:X 0.000235059
3 seg[1] seg[2] 0
4 seg[1] *69:12 1.88656e-05
5 seg[1] *213:14 1.97486e-05
6 seg[0] seg[1] 0
*RES
1 *1096:X seg[1] 4.90503 
*END

*D_NET *15 0.000520599
*CONN
*P seg[2] O
*I *1097:X O *D sky130_fd_sc_hd__buf_1
*CAP
1 seg[2] 0.000240585
2 *1097:X 0.000240585
3 seg[2] seg[3] 0
4 seg[2] *69:12 1.88656e-05
5 seg[2] *213:14 2.05641e-05
6 seg[1] seg[2] 0
*RES
1 *1097:X seg[2] 4.90503 
*END

*D_NET *16 0.000478517
*CONN
*P seg[3] O
*I *1098:X O *D sky130_fd_sc_hd__buf_1
*CAP
1 seg[3] 0.000229826
2 *1098:X 0.000229826
3 seg[3] seg[4] 0
4 seg[3] *69:12 1.88656e-05
5 seg[2] seg[3] 0
*RES
1 *1098:X seg[3] 4.90503 
*END

*D_NET *17 0.000493585
*CONN
*P seg[4] O
*I *1099:X O *D sky130_fd_sc_hd__buf_1
*CAP
1 seg[4] 0.000220687
2 *1099:X 0.000220687
3 seg[4] seg[5] 0
4 seg[4] *1074:RESET_B 2.16336e-05
5 seg[4] *1099:A 1.17114e-05
6 seg[4] *69:12 1.88656e-05
7 seg[3] seg[4] 0
*RES
1 *1099:X seg[4] 4.90503 
*END

*D_NET *18 0.000476951
*CONN
*P seg[5] O
*I *1100:X O *D sky130_fd_sc_hd__buf_1
*CAP
1 seg[5] 0.000228262
2 *1100:X 0.000228262
3 seg[5] seg[6] 0
4 seg[5] *1074:RESET_B 9.21183e-06
5 seg[5] *1100:A 1.12156e-05
6 seg[4] seg[5] 0
*RES
1 *1100:X seg[5] 4.90503 
*END

*D_NET *19 0.000467924
*CONN
*P seg[6] O
*I *1101:X O *D sky130_fd_sc_hd__buf_1
*CAP
1 seg[6] 0.000228106
2 *1101:X 0.000228106
3 seg[6] *1101:A 1.17114e-05
4 seg[5] seg[6] 0
*RES
1 *1101:X seg[6] 4.90503 
*END

*D_NET *20 0.0442298
*CONN
*I *994:C1 I *D sky130_fd_sc_hd__a211oi_1
*I *933:A I *D sky130_fd_sc_hd__nor3_1
*I *978:A I *D sky130_fd_sc_hd__nor2_1
*I *972:C1 I *D sky130_fd_sc_hd__a211oi_1
*I *960:A I *D sky130_fd_sc_hd__nor3_1
*I *914:B I *D sky130_fd_sc_hd__nor2_1
*I *1053:D I *D sky130_fd_sc_hd__dfrtp_4
*I *1003:A I *D sky130_fd_sc_hd__nor2_1
*I *939:B1 I *D sky130_fd_sc_hd__a211oi_1
*I *997:A I *D sky130_fd_sc_hd__nor3_1
*I *913:Y O *D sky130_fd_sc_hd__clkinv_4
*CAP
1 *994:C1 0
2 *933:A 0.0009169
3 *978:A 3.25131e-05
4 *972:C1 0
5 *960:A 2.76945e-05
6 *914:B 0.00115725
7 *1053:D 0
8 *1003:A 0.000825664
9 *939:B1 0
10 *997:A 0.0012219
11 *913:Y 4.45782e-05
12 *20:195 0.00221513
13 *20:175 0.00194827
14 *20:152 0.00109815
15 *20:129 0.00123677
16 *20:82 0.0020541
17 *20:58 0.00200582
18 *20:50 0.00173735
19 *20:22 0.00211555
20 *20:8 0.00139204
21 *914:B *946:A 3.60024e-06
22 *914:B *947:C 0.000451565
23 *914:B *1093:A 4.89295e-05
24 *914:B *1095:A 0.000137229
25 *914:B *103:52 5.45625e-05
26 *914:B *159:10 0.000485521
27 *914:B *159:24 0.000640361
28 *914:B *181:8 4.41506e-05
29 *914:B *185:43 8.41384e-05
30 *914:B *187:79 0.000920597
31 *914:B *206:18 0.00101269
32 *933:A *908:C 1.87841e-05
33 *933:A *916:A 0.000109733
34 *933:A *933:C 8.35106e-05
35 *933:A *994:A1 0.000479923
36 *933:A *80:18 0
37 *933:A *183:24 7.08455e-05
38 *933:A *198:33 0.000195432
39 *960:A *898:A1 8.23457e-05
40 *960:A *899:B1 3.83194e-05
41 *997:A *889:A 0.000245866
42 *997:A *889:C 7.10861e-05
43 *997:A *922:A 0.000197855
44 *997:A *952:A 0.000109845
45 *997:A *995:B 0.000712452
46 *997:A *997:B 4.6075e-05
47 *997:A *1062:RESET_B 0.000132473
48 *997:A *84:12 2.0187e-05
49 *997:A *188:28 0.000151698
50 *997:A *188:63 8.03295e-05
51 *1003:A *938:A 3.84842e-05
52 *1003:A *958:A 3.20802e-05
53 *1003:A *960:B 0.000487696
54 *1003:A *1003:B 0.000351445
55 *1003:A *1053:CLK 6.53002e-05
56 *1003:A *62:26 0.000524028
57 *1003:A *87:65 0.0004864
58 *20:8 *1000:A2 0.000154977
59 *20:8 *103:66 8.35068e-05
60 *20:8 *112:137 3.96653e-05
61 *20:22 *922:A 0.000532604
62 *20:22 *982:A2 0
63 *20:22 *1007:A 1.88602e-05
64 *20:22 *1010:A 0.000386861
65 *20:22 *1078:RESET_B 8.20839e-05
66 *20:22 *1079:RESET_B 6.96952e-05
67 *20:22 *1082:RESET_B 0.000410895
68 *20:22 *95:21 0.000360134
69 *20:22 *175:16 0.0004105
70 *20:22 *195:73 0
71 *20:22 *220:10 0
72 *20:50 *896:B1 8.65224e-05
73 *20:50 *95:21 0.000800839
74 *20:50 *190:20 0.000102662
75 *20:50 *220:10 0
76 *20:58 *889:A 0.000294203
77 *20:58 *958:A 9.03589e-05
78 *20:58 *1013:A 0.00059516
79 *20:58 *1053:CLK 8.23042e-05
80 *20:58 *208:8 0.000339027
81 *20:58 *214:43 0.000503573
82 *20:82 *896:B1 5.59034e-05
83 *20:82 *95:21 0.000184409
84 *20:82 *190:14 2.62189e-05
85 *20:129 *912:B1_N 0.000239768
86 *20:129 *942:A 0.000902783
87 *20:129 *1059:D 0.000455845
88 *20:129 *1066:D 0.000195673
89 *20:129 *95:21 0.00010397
90 *20:129 *95:32 0.000307171
91 *20:129 *169:8 8.35068e-05
92 *20:129 *178:14 0.000114049
93 *20:129 *183:61 0.00070843
94 *20:129 *190:14 2.50805e-05
95 *20:129 *203:60 8.23457e-05
96 *20:152 *898:A1 7.08076e-05
97 *20:152 *899:B1 0.000380399
98 *20:152 *972:A1 1.08758e-05
99 *20:152 *972:A2 0.000170901
100 *20:152 *1084:D 9.47267e-06
101 *20:152 *186:8 4.77757e-05
102 *20:152 *186:18 0.000287328
103 *20:152 *192:86 6.44978e-06
104 *20:152 *197:41 0.00046553
105 *20:152 *208:34 0.000225285
106 *20:175 *893:B 5.63183e-05
107 *20:175 *942:A 0
108 *20:175 *953:B1 0.000559669
109 *20:175 *972:A1 3.80951e-05
110 *20:175 *972:B1 2.55598e-05
111 *20:175 *993:A 0.000159526
112 *20:175 *994:B1 9.88433e-05
113 *20:175 *1069:D 2.52812e-05
114 *20:175 *1084:D 0.000121031
115 *20:175 *87:32 0.000131842
116 *20:175 *118:38 5.44496e-05
117 *20:175 *189:33 0.000171656
118 *20:175 *195:28 0.000388283
119 *20:175 *197:64 0.000414005
120 *20:175 *201:40 4.51682e-05
121 *20:195 *911:A1 0.00159855
122 *20:195 *927:A 6.45238e-05
123 *20:195 *977:A 5.76232e-06
124 *20:195 *978:B 0.000477803
125 *20:195 *1019:A 2.11552e-05
126 *20:195 *1075:D 0.000422614
*RES
1 *913:Y *20:8 5.085 
2 *20:8 *20:22 24.225 
3 *20:22 *997:A 26.12 
4 *20:22 *939:B1 1.6 
5 *20:8 *20:50 10.05 
6 *20:50 *20:58 22.1938 
7 *20:58 *1003:A 22.7862 
8 *20:58 *1053:D 1.6 
9 *20:50 *20:82 2.4 
10 *20:82 *914:B 38.08 
11 *20:82 *20:129 24.6572 
12 *20:129 *960:A 2.395 
13 *20:129 *20:152 15.4 
14 *20:152 *972:C1 1.6 
15 *20:152 *20:175 15.7018 
16 *20:175 *20:195 26.38 
17 *20:195 *978:A 2.05 
18 *20:195 *933:A 22.295 
19 *20:175 *994:C1 1.6 
*END

*D_NET *21 0.0100153
*CONN
*I *1054:D I *D sky130_fd_sc_hd__dfrtp_4
*I *914:Y O *D sky130_fd_sc_hd__nor2_1
*CAP
1 *1054:D 0.00148326
2 *914:Y 0.000598972
3 *21:16 0.00208223
4 *1054:D *966:A 0.000268904
5 *1054:D *1033:A 0.000229541
6 *1054:D *1054:CLK 0.00039939
7 *1054:D *69:12 2.65814e-06
8 *1054:D *118:38 0.00155741
9 *1054:D *176:135 0.000192125
10 *1054:D *187:45 0.00018327
11 *21:16 *1042:A 0.000352977
12 *21:16 *102:51 0.00104789
13 *21:16 *177:80 0.000560403
14 *21:16 *177:89 0.000918716
15 *21:16 *187:79 4.89395e-05
16 *21:16 *213:14 6.8016e-05
17 an[7] *21:16 2.05641e-05
*RES
1 *914:Y *21:16 28.895 
2 *21:16 *1054:D 30.685 
*END

*D_NET *22 0.0097666
*CONN
*I *1064:D I *D sky130_fd_sc_hd__dfrtp_4
*I *952:X O *D sky130_fd_sc_hd__buf_1
*CAP
1 *1064:D 0
2 *952:X 0.00231174
3 *22:16 0.00231174
4 *22:16 *917:C 0
5 *22:16 *944:A3 0.000861323
6 *22:16 *944:B1 0.000946893
7 *22:16 *947:A 0.000124139
8 *22:16 *952:A 0
9 *22:16 *1005:B 0.000163141
10 *22:16 *1055:RESET_B 0.000103037
11 *22:16 *1064:RESET_B 0
12 *22:16 *1078:RESET_B 6.50605e-05
13 *22:16 *37:12 1.78506e-05
14 *22:16 *62:26 0.000946644
15 *22:16 *94:10 0.000176273
16 *22:16 *175:63 0
17 *22:16 *175:80 0.000185243
18 *22:16 *215:18 0.00155351
*RES
1 *952:X *22:16 48.0081 
2 *22:16 *1064:D 3.6 
*END

*D_NET *23 0.0160158
*CONN
*I *1065:D I *D sky130_fd_sc_hd__dfrtp_2
*I *957:X O *D sky130_fd_sc_hd__buf_1
*CAP
1 *1065:D 0.00358653
2 *957:X 0.00358653
3 *1065:D *927:A 2.577e-05
4 *1065:D *929:A 0.000490823
5 *1065:D *930:A 2.46089e-05
6 *1065:D *933:B 0.000133333
7 *1065:D *966:A 0.000311607
8 *1065:D *1011:A 0.000248887
9 *1065:D *1050:A 7.80775e-05
10 *1065:D *1055:RESET_B 0.00242667
11 *1065:D *1068:D 8.26775e-05
12 *1065:D *1072:D 6.87458e-05
13 *1065:D *1077:D 0.0031034
14 *1065:D *1083:RESET_B 0.000268765
15 *1065:D *86:43 0.000164415
16 *1065:D *86:51 0
17 *1065:D *101:18 0.00128438
18 *1065:D *119:47 1.97429e-05
19 *1065:D *208:34 0.000110836
*RES
1 *957:X *1065:D 27.0995 
*END

*D_NET *24 0.0030887
*CONN
*I *1066:D I *D sky130_fd_sc_hd__dfrtp_1
*I *960:Y O *D sky130_fd_sc_hd__nor3_1
*CAP
1 *1066:D 0.000515848
2 *960:Y 0.000515848
3 *1066:D *903:A 8.7152e-06
4 *1066:D *942:A 0.000151292
5 *1066:D *960:C 0.000143608
6 *1066:D *1067:D 8.33066e-06
7 *1066:D *159:24 0.00102553
8 *1066:D *211:10 0.000523854
9 *20:129 *1066:D 0.000195673
*RES
1 *960:Y *1066:D 21.285 
*END

*D_NET *25 0.00756726
*CONN
*I *1067:D I *D sky130_fd_sc_hd__dfrtp_4
*I *964:X O *D sky130_fd_sc_hd__clkbuf_1
*CAP
1 *1067:D 0.00231501
2 *964:X 0.00231501
3 *1067:D *899:B1 0.00017262
4 *1067:D *916:B 0.000638014
5 *1067:D *942:A 0.000229118
6 *1067:D *960:C 0.00135897
7 *1067:D *1001:A 2.04328e-05
8 *1067:D *1067:CLK 0.000180776
9 *1067:D *49:24 8.41307e-05
10 *1067:D *159:24 0.000113493
11 *1067:D *191:22 4.13557e-05
12 *1067:D *196:10 2.49909e-05
13 *1067:D *196:89 3.90573e-05
14 *1067:D *198:33 2.5949e-05
15 *1066:D *1067:D 8.33066e-06
*RES
1 *964:X *1067:D 39.585 
*END

*D_NET *26 0.017915
*CONN
*I *1068:D I *D sky130_fd_sc_hd__dfrtp_2
*I *968:X O *D sky130_fd_sc_hd__buf_1
*CAP
1 *1068:D 0.00504024
2 *968:X 0.00504024
3 *1068:D *917:C 0.000848511
4 *1068:D *921:C 0
5 *1068:D *935:A 0
6 *1068:D *935:B 2.06983e-05
7 *1068:D *939:A1 0.000145731
8 *1068:D *939:A2 0.000324409
9 *1068:D *945:C 0.000672873
10 *1068:D *949:B 0.00012714
11 *1068:D *968:A 1.71824e-05
12 *1068:D *1017:A2 0.000378463
13 *1068:D *1050:A 0.000688873
14 *1068:D *1068:RESET_B 0.000176921
15 *1068:D *1069:D 0.00129524
16 *1068:D *1074:RESET_B 0.000222817
17 *1068:D *1081:RESET_B 1.32711e-05
18 *1068:D *1083:RESET_B 0.000749824
19 *1068:D *1100:A 0.000149356
20 *1068:D *32:16 0
21 *1068:D *126:16 0
22 *1068:D *126:47 0.000151211
23 *1068:D *175:16 0.00164183
24 *1068:D *184:16 5.84568e-05
25 *1068:D *192:18 6.90254e-05
26 *1065:D *1068:D 8.26775e-05
27 *1086:A *1068:D 0
*RES
1 *968:X *1068:D 45.3081 
*END

*D_NET *27 0.0145222
*CONN
*I *1069:D I *D sky130_fd_sc_hd__dfrtp_1
*I *972:Y O *D sky130_fd_sc_hd__a211oi_1
*CAP
1 *1069:D 0.00422245
2 *972:Y 0.00422245
3 *1069:D *892:A 2.90124e-05
4 *1069:D *892:B 0.000856683
5 *1069:D *910:C 7.54285e-05
6 *1069:D *934:A 7.54285e-05
7 *1069:D *939:A2 0.000766844
8 *1069:D *954:B 6.63219e-06
9 *1069:D *972:B1 8.7152e-06
10 *1069:D *988:B 0.000296834
11 *1069:D *1007:A 0.00110768
12 *1069:D *1068:RESET_B 0.000142443
13 *1069:D *1083:RESET_B 0.000718636
14 *1069:D *186:40 0.000311604
15 *1069:D *192:18 1.00941e-05
16 *1069:D *196:89 9.64974e-05
17 *1069:D *197:41 0.000212541
18 *1069:D *197:64 4.16618e-05
19 *1068:D *1069:D 0.00129524
20 *20:175 *1069:D 2.52812e-05
*RES
1 *972:Y *1069:D 23.7086 
*END

*D_NET *28 0.005318
*CONN
*I *1070:D I *D sky130_fd_sc_hd__dfrtp_4
*I *976:X O *D sky130_fd_sc_hd__clkbuf_1
*CAP
1 *1070:D 0.00096282
2 *976:X 0.00096282
3 *1070:D *1060:D 0.0011453
4 *1070:D *1070:CLK 0.000698334
5 *1070:D *84:39 0
6 *1070:D *103:24 0.00102679
7 *1070:D *103:38 0
8 *1070:D *176:118 0.000112067
9 *1070:D *189:63 0.000129188
10 *1070:D *192:61 0.000192493
11 *1070:D *214:72 8.818e-05
*RES
1 *976:X *1070:D 31.725 
*END

*D_NET *29 0.00991541
*CONN
*I *1071:D I *D sky130_fd_sc_hd__dfrtp_4
*I *978:Y O *D sky130_fd_sc_hd__nor2_1
*CAP
1 *1071:D 0.000921419
2 *978:Y 0.0020966
3 *29:12 0.00301802
4 *1071:D *931:B1 0.000847275
5 *1071:D *1060:D 2.72318e-05
6 *1071:D *1065:CLK 5.06382e-06
7 *1071:D *1071:CLK 8.71841e-05
8 *1071:D *71:22 0.000916808
9 *1071:D *142:18 0
10 *1071:D *176:141 0
11 *1071:D *182:17 1.3376e-05
12 *1071:D *182:28 6.9451e-05
13 *1071:D *214:72 3.59531e-06
14 *29:12 *910:B 0.00142978
15 *29:12 *981:A2 0.00026252
16 *29:12 *981:B1 0.000217089
17 *29:12 *35:10 0
*RES
1 *978:Y *29:12 49.745 
2 *29:12 *1071:D 25.055 
*END

*D_NET *30 0.00576947
*CONN
*I *1072:D I *D sky130_fd_sc_hd__dfrtp_4
*I *981:X O *D sky130_fd_sc_hd__o221a_1
*CAP
1 *1072:D 0.000888218
2 *981:X 0.000888218
3 *1072:D *901:A2 0
4 *1072:D *929:A 9.20337e-05
5 *1072:D *981:B1 0.000270392
6 *1072:D *983:A 0.00153009
7 *1072:D *1038:A 0.000845368
8 *1072:D *1065:CLK 0.000266784
9 *1072:D *1072:RESET_B 4.96965e-05
10 *1072:D *71:22 7.52572e-05
11 *1072:D *158:20 0.000562924
12 *1072:D *186:40 0
13 *1072:D *192:86 0.000116205
14 *1072:D *197:64 0
15 *1072:D *199:41 0.00011553
16 *1065:D *1072:D 6.87458e-05
*RES
1 *981:X *1072:D 33.96 
*END

*D_NET *31 0.00300071
*CONN
*I *1073:D I *D sky130_fd_sc_hd__dfrtp_2
*I *987:X O *D sky130_fd_sc_hd__clkbuf_1
*CAP
1 *1073:D 0.000866969
2 *987:X 0.000866969
3 *1073:D *897:B 2.35435e-05
4 *1073:D *918:A 5.83121e-06
5 *1073:D *1056:D 0.000176797
6 *1073:D *1064:RESET_B 0.000178027
7 *1073:D *1073:CLK 0.000469111
8 *1073:D *133:60 0.000413464
*RES
1 *987:X *1073:D 22.215 
*END

*D_NET *32 0.00836017
*CONN
*I *1055:D I *D sky130_fd_sc_hd__dfrtp_4
*I *918:X O *D sky130_fd_sc_hd__clkbuf_1
*CAP
1 *1055:D 0.000469739
2 *918:X 0.00199382
3 *32:16 0.00246356
4 *1055:D *198:33 0.000363138
5 *32:16 *911:A2 0.00109337
6 *32:16 *916:A 0
7 *32:16 *917:C 0
8 *32:16 *922:A 0.00015896
9 *32:16 *939:A1 0.00137106
10 *32:16 *985:A 0.000150422
11 *32:16 *986:C 0.000131248
12 *32:16 *997:C 1.19928e-05
13 *32:16 *1056:D 8.40213e-05
14 *32:16 *1081:RESET_B 0
15 *32:16 *155:18 6.88421e-05
16 *1068:D *32:16 0
*RES
1 *918:X *32:16 47.195 
2 *32:16 *1055:D 7.615 
*END

*D_NET *33 0.00275691
*CONN
*I *1074:D I *D sky130_fd_sc_hd__dfrtp_2
*I *991:X O *D sky130_fd_sc_hd__clkbuf_1
*CAP
1 *1074:D 0.000703438
2 *991:X 0.000703438
3 *1074:D *982:A3 8.18626e-05
4 *1074:D *1078:D 0.000565781
5 *1074:D *133:14 0.000275146
6 *1074:D *133:60 0.000157714
7 *1074:D *188:22 0.000269536
8 *1074:D *188:28 0
*RES
1 *991:X *1074:D 19.065 
*END

*D_NET *34 0.00266424
*CONN
*I *1075:D I *D sky130_fd_sc_hd__dfrtp_2
*I *994:Y O *D sky130_fd_sc_hd__a211oi_1
*CAP
1 *1075:D 0.000477352
2 *994:Y 0.000477352
3 *1075:D *911:A1 2.51225e-05
4 *1075:D *927:A 2.92522e-05
5 *1075:D *927:B 4.63425e-05
6 *1075:D *1019:A 1.01661e-05
7 *1075:D *1022:A 4.66108e-05
8 *1075:D *1081:CLK 7.22354e-05
9 *1075:D *51:26 1.00447e-05
10 *1075:D *175:103 0.000382076
11 *1075:D *180:49 2.16833e-05
12 *1075:D *183:24 0.000643389
13 *20:195 *1075:D 0.000422614
*RES
1 *994:Y *1075:D 19.14 
*END

*D_NET *35 0.0112029
*CONN
*I *1076:D I *D sky130_fd_sc_hd__dfrtp_2
*I *997:Y O *D sky130_fd_sc_hd__nor3_1
*CAP
1 *1076:D 0.000563039
2 *997:Y 4.23703e-05
3 *35:10 0.0021965
4 *35:8 0.00167583
5 *1076:D *1065:RESET_B 0.000467074
6 *1076:D *1076:CLK 2.75229e-05
7 *1076:D *48:22 6.35875e-05
8 *35:8 *997:B 4.7072e-06
9 *35:10 *909:B1 8.44359e-05
10 *35:10 *911:A1 0.000172664
11 *35:10 *911:B1 0.000153775
12 *35:10 *944:A1 0.000108764
13 *35:10 *945:B 9.32397e-06
14 *35:10 *952:A 0.00127306
15 *35:10 *955:A 0.000222551
16 *35:10 *958:A 5.1985e-06
17 *35:10 *968:A 0.000293733
18 *35:10 *992:A 0.000203475
19 *35:10 *997:C 0.000505139
20 *35:10 *1005:A 0.000243111
21 *35:10 *1032:A 0
22 *35:10 *1062:RESET_B 0.000111469
23 *35:10 *1078:RESET_B 0.00138967
24 *35:10 *80:18 0.000351029
25 *35:10 *101:18 1.15399e-05
26 *35:10 *102:14 9.47962e-06
27 *35:10 *183:24 0
28 *35:10 *194:49 0.000750621
29 *35:10 *198:33 7.09072e-05
30 *35:10 *200:35 1.03592e-05
31 *35:10 *212:25 5.2849e-05
32 *35:10 *213:28 0.000129099
33 *29:12 *35:10 0
*RES
1 *997:Y *35:8 4.05 
2 *35:8 *35:10 50.85 
3 *35:10 *1076:D 13.71 
*END

*D_NET *36 0.0161587
*CONN
*I *1077:D I *D sky130_fd_sc_hd__dfrtp_1
*I *1000:X O *D sky130_fd_sc_hd__o211a_1
*CAP
1 *1077:D 0.00479404
2 *1000:X 0.00479404
3 *1077:D *907:C 3.06763e-05
4 *1077:D *916:B 0.000161938
5 *1077:D *951:B 1.02455e-05
6 *1077:D *951:C 0.000187199
7 *1077:D *952:A 0.000107628
8 *1077:D *991:A 6.37907e-05
9 *1077:D *993:C 0.000375182
10 *1077:D *1009:A1 8.64545e-05
11 *1077:D *1077:RESET_B 0.000101999
12 *1077:D *1084:D 0.00017754
13 *1077:D *86:51 0
14 *1077:D *102:51 0.00144692
15 *1077:D *112:96 0.000135566
16 *1077:D *112:117 0.000267053
17 *1077:D *118:38 3.64998e-06
18 *1077:D *119:47 2.05571e-05
19 *1077:D *162:34 9.387e-06
20 *1077:D *167:20 0.000223986
21 *1077:D *168:26 1.81196e-05
22 *1077:D *197:41 3.92756e-05
23 *1065:D *1077:D 0.0031034
*RES
1 *1000:X *1077:D 25.5357 
*END

*D_NET *37 0.00963561
*CONN
*I *1078:D I *D sky130_fd_sc_hd__dfrtp_4
*I *1003:Y O *D sky130_fd_sc_hd__nor2_1
*CAP
1 *1078:D 0.000756527
2 *1003:Y 0.00139516
3 *37:12 0.00215169
4 *1078:D *926:A 4.89295e-05
5 *1078:D *961:A 6.78079e-05
6 *1078:D *963:B 0.000970267
7 *1078:D *974:A 0.000258851
8 *1078:D *974:B 5.70585e-05
9 *1078:D *982:A3 0.000417977
10 *1078:D *148:10 3.31903e-05
11 *1078:D *166:69 0.00026815
12 *37:12 *889:C 0.000711427
13 *37:12 *938:A 0.000914998
14 *37:12 *947:A 0.000103752
15 *37:12 *987:A 0.000525303
16 *37:12 *995:B 0
17 *37:12 *1056:D 0
18 *37:12 *1064:RESET_B 0.000238944
19 *37:12 *175:63 0.000131944
20 *1074:D *1078:D 0.000565781
21 *22:16 *37:12 1.78506e-05
*RES
1 *1003:Y *37:12 32.54 
2 *37:12 *1078:D 21.37 
*END

*D_NET *38 0.0124652
*CONN
*I *1079:D I *D sky130_fd_sc_hd__dfrtp_2
*I *1007:X O *D sky130_fd_sc_hd__buf_1
*CAP
1 *1079:D 0.00510294
2 *1007:X 0.00510294
3 *1079:D *889:A 0.000133105
4 *1079:D *952:A 0.000226648
5 *1079:D *964:A 0.00121749
6 *1079:D *991:A 1.5971e-05
7 *1079:D *1004:B1 5.40483e-06
8 *1079:D *1007:A 2.79856e-05
9 *1079:D *1017:A2 1.31561e-05
10 *1079:D *1075:RESET_B 0
11 *1079:D *1076:CLK 0.000101789
12 *1079:D *1079:CLK 0.000227323
13 *1079:D *48:22 0.000103438
14 *1079:D *133:60 4.23862e-05
15 *1079:D *179:35 0.000131219
16 *1079:D *200:35 1.33917e-05
17 *1086:A *1079:D 0
*RES
1 *1007:X *1079:D 25.4925 
*END

*D_NET *39 0.00706673
*CONN
*I *1080:D I *D sky130_fd_sc_hd__dfrtp_1
*I *1009:X O *D sky130_fd_sc_hd__o211a_1
*CAP
1 *1080:D 0.00144057
2 *1009:X 0.00144057
3 *1080:D *900:A 0.00140231
4 *1080:D *920:B1 4.82036e-05
5 *1080:D *935:A 0
6 *1080:D *935:B 0.00070301
7 *1080:D *963:A 0.000119866
8 *1080:D *1000:A1 0.000124052
9 *1080:D *1009:C1 7.99009e-05
10 *1080:D *1095:A 0
11 *1080:D *1096:A 0
12 *1080:D *112:141 0.000812449
13 *1080:D *117:47 0.000668836
14 *1080:D *177:117 3.74161e-05
15 *1080:D *177:123 0.00018955
16 *1080:D *210:34 0
*RES
1 *1009:X *1080:D 41.88 
*END

*D_NET *40 0.00664888
*CONN
*I *1056:D I *D sky130_fd_sc_hd__dfrtp_2
*I *922:X O *D sky130_fd_sc_hd__clkbuf_1
*CAP
1 *1056:D 0.00132021
2 *922:X 0.00132021
3 *1056:D *897:B 0.000437732
4 *1056:D *922:A 0.000179586
5 *1056:D *947:C 0.00147058
6 *1056:D *987:A 0.000202179
7 *1056:D *995:B 0.000214654
8 *1056:D *1035:A 4.66108e-05
9 *1056:D *1064:RESET_B 0.000493596
10 *1056:D *1068:RESET_B 3.46756e-05
11 *1056:D *1082:D 9.12857e-06
12 *1056:D *1091:A 0.000118081
13 *1056:D *84:12 0.000428558
14 *1056:D *84:39 2.39856e-05
15 *1056:D *183:77 8.82805e-05
16 *1073:D *1056:D 0.000176797
17 *32:16 *1056:D 8.40213e-05
18 *37:12 *1056:D 0
*RES
1 *922:X *1056:D 39.405 
*END

*D_NET *41 0.0111232
*CONN
*I *1057:D I *D sky130_fd_sc_hd__dfrtp_1
*I *925:X O *D sky130_fd_sc_hd__buf_1
*CAP
1 *1057:D 0.00161561
2 *925:X 0.00166114
3 *41:12 0.00327676
4 *1057:D *921:C 0.000490824
5 *1057:D *963:B 0.000191335
6 *1057:D *1078:CLK 6.33932e-05
7 *1057:D *1097:A 0.000716373
8 *1057:D *177:57 0.000440279
9 *1057:D *177:117 0.000478299
10 *1057:D *181:44 0.000548572
11 *1057:D *203:48 8.23457e-05
12 *1057:D *207:18 7.74539e-05
13 *41:12 *925:A 5.23992e-05
14 *41:12 *69:12 0.0014284
15 *41:12 *213:14 0
*RES
1 *925:X *41:12 39.845 
2 *41:12 *1057:D 31.4275 
*END

*D_NET *42 0.00371529
*CONN
*I *1058:D I *D sky130_fd_sc_hd__dfrtp_2
*I *930:X O *D sky130_fd_sc_hd__clkbuf_1
*CAP
1 *1058:D 0.00100466
2 *930:X 0.00100466
3 *1058:D *899:A1 0.000131731
4 *1058:D *951:C 0.000270799
5 *1058:D *971:A 0.000448893
6 *1058:D *1000:A1 0.000538517
7 *1058:D *177:80 0.000316024
*RES
1 *930:X *1058:D 29.175 
*END

*D_NET *43 0.0119448
*CONN
*I *1059:D I *D sky130_fd_sc_hd__dfrtp_1
*I *933:Y O *D sky130_fd_sc_hd__nor3_1
*CAP
1 *1059:D 0.00368353
2 *933:Y 0.00368353
3 *1059:D *912:B1_N 0.000195902
4 *1059:D *945:C 0.000558507
5 *1059:D *1005:B 0
6 *1059:D *1081:RESET_B 0.000376044
7 *1059:D *80:18 0.000947986
8 *1059:D *103:38 2.22315e-05
9 *1059:D *158:20 0.000167028
10 *1059:D *203:48 0.000363437
11 *1086:A *1059:D 0.0014908
12 *20:129 *1059:D 0.000455845
*RES
1 *933:Y *1059:D 31.1081 
*END

*D_NET *44 0.0063181
*CONN
*I *1060:D I *D sky130_fd_sc_hd__dfrtp_2
*I *937:X O *D sky130_fd_sc_hd__clkbuf_1
*CAP
1 *1060:D 0.00217274
2 *937:X 0.00217274
3 *1060:D *1071:CLK 0.000150569
4 *1060:D *187:47 0.000261932
5 *1060:D *195:12 0.000261932
6 *1060:D *214:72 0.000125653
7 *1070:D *1060:D 0.0011453
8 *1071:D *1060:D 2.72318e-05
*RES
1 *937:X *1060:D 34.965 
*END

*D_NET *45 0.00770194
*CONN
*I *1061:D I *D sky130_fd_sc_hd__dfrtp_1
*I *939:Y O *D sky130_fd_sc_hd__a211oi_1
*CAP
1 *1061:D 0.00147243
2 *939:Y 0.00147243
3 *1061:D *956:B 0.000288615
4 *1061:D *961:B 0.000399043
5 *1061:D *975:A 0
6 *1061:D *980:B 3.60648e-06
7 *1061:D *1057:RESET_B 0.000651362
8 *1061:D *1061:RESET_B 0.000444952
9 *1061:D *1074:RESET_B 0.000143325
10 *1061:D *51:26 7.52879e-05
11 *1061:D *126:47 0.000132568
12 *1061:D *155:39 0.000256552
13 *1061:D *162:34 2.35634e-05
14 *1061:D *168:26 0.000216206
15 *1061:D *175:16 7.61681e-05
16 *1061:D *188:63 4.89395e-05
17 *1061:D *195:63 3.82018e-05
18 *1061:D *195:73 0.000138
19 *1061:D *199:18 8.74157e-06
20 *1061:D *201:40 0.00125921
21 *1061:D *204:8 4.9213e-05
22 *1061:D *204:43 6.41825e-07
23 *1061:D *219:16 0.000502887
*RES
1 *939:Y *1061:D 42.9038 
*END

*D_NET *46 0.00882337
*CONN
*I *1062:D I *D sky130_fd_sc_hd__dfrtp_2
*I *943:X O *D sky130_fd_sc_hd__clkbuf_1
*CAP
1 *1062:D 0.00147676
2 *943:X 0.00147676
3 *1062:D *918:A 0.000319959
4 *1062:D *943:A 5.16418e-05
5 *1062:D *980:C 7.41888e-05
6 *1062:D *989:B 0.000263595
7 *1062:D *995:A 2.76781e-05
8 *1062:D *995:B 8.41307e-05
9 *1062:D *1066:CLK 1.28996e-05
10 *1062:D *1068:RESET_B 0.000166342
11 *1062:D *97:14 0.000120896
12 *1062:D *112:18 0.000879492
13 *1062:D *112:39 0.000485286
14 *1062:D *155:39 0.000697756
15 *1062:D *162:34 6.3685e-05
16 *1062:D *162:38 4.66108e-05
17 *1062:D *176:6 0.000195377
18 *1062:D *176:14 6.33103e-05
19 *1062:D *177:22 0.00109834
20 *1062:D *183:61 0.000146937
21 *1062:D *183:77 0.000173125
22 *1062:D *196:18 0.000513482
23 *1062:D *201:40 0.000119756
24 *1062:D *211:10 0.000265375
*RES
1 *943:X *1062:D 47.73 
*END

*D_NET *47 0.012353
*CONN
*I *1063:D I *D sky130_fd_sc_hd__dfrtp_2
*I *948:X O *D sky130_fd_sc_hd__buf_1
*CAP
1 *1063:D 0.00349341
2 *948:X 0.00349341
3 *1063:D *894:A 7.47284e-05
4 *1063:D *894:B 0.000102134
5 *1063:D *895:B1 7.18805e-05
6 *1063:D *902:A 0
7 *1063:D *908:A_N 0.000122534
8 *1063:D *929:C 0.000121274
9 *1063:D *942:C 0.00120263
10 *1063:D *983:A 0
11 *1063:D *983:C 0
12 *1063:D *989:A 0.000629
13 *1063:D *1055:RESET_B 0.000146761
14 *1063:D *1059:RESET_B 0.00215269
15 *1063:D *1061:CLK 1.88602e-05
16 *1063:D *80:18 0
17 *1063:D *93:20 7.49594e-05
18 *1063:D *117:47 0.000459214
19 *1063:D *188:22 0
20 *1063:D *199:60 0.000189508
*RES
1 *948:X *1063:D 33.8745 
*END

*D_NET *48 0.00895292
*CONN
*I *1053:RESET_B I *D sky130_fd_sc_hd__dfrtp_4
*I *1019:Y O *D sky130_fd_sc_hd__inv_2
*CAP
1 *1053:RESET_B 0
2 *1019:Y 0.00189009
3 *48:22 0.00189009
4 *48:22 *889:A 5.03926e-05
5 *48:22 *907:B 1.44839e-05
6 *48:22 *907:D 0
7 *48:22 *909:B1 0.000579709
8 *48:22 *1004:B1 0.000584665
9 *48:22 *1019:A 0.000319237
10 *48:22 *1064:RESET_B 0.000859912
11 *48:22 *1065:RESET_B 2.8585e-06
12 *48:22 *1076:CLK 0.000222123
13 *48:22 *71:22 0.000237613
14 *48:22 *84:39 0.000668443
15 *48:22 *165:12 8.01191e-05
16 *48:22 *175:103 0.000110939
17 *48:22 *179:10 0.00012972
18 *48:22 *179:14 8.44684e-05
19 *48:22 *180:10 7.13722e-05
20 *48:22 *180:21 0.000317731
21 *48:22 *180:32 0.000187016
22 *48:22 *180:43 0.000145473
23 *48:22 *180:45 0.000339432
24 *48:22 *215:18 0
25 *1076:D *48:22 6.35875e-05
26 *1079:D *48:22 0.000103438
*RES
1 *1019:Y *48:22 48.945 
2 *48:22 *1053:RESET_B 2 
*END

*D_NET *49 0.00935301
*CONN
*I *1054:RESET_B I *D sky130_fd_sc_hd__dfrtp_4
*I *1020:Y O *D sky130_fd_sc_hd__inv_2
*CAP
1 *1054:RESET_B 0.000161841
2 *1020:Y 0.00249084
3 *49:24 0.00265268
4 *1054:RESET_B *942:A 3.01014e-05
5 *1054:RESET_B *951:B 6.01002e-05
6 *1054:RESET_B *993:C 0.000238753
7 *1054:RESET_B *202:24 0.000290837
8 *49:24 *930:A 0.000257632
9 *49:24 *972:A1 4.57023e-05
10 *49:24 *1000:A1 0.000813234
11 *49:24 *1020:A 6.72833e-06
12 *49:24 *1060:RESET_B 0.000116954
13 *49:24 *1066:RESET_B 0.00122603
14 *49:24 *1071:RESET_B 0.000155343
15 *49:24 *1072:CLK 0.000204793
16 *49:24 *1072:RESET_B 3.62646e-05
17 *49:24 *1073:RESET_B 3.59266e-06
18 *49:24 *196:89 0.000155935
19 *49:24 *198:33 1.41895e-05
20 *49:24 *198:37 0.000307329
21 *1067:D *49:24 8.41307e-05
*RES
1 *1020:Y *49:24 48.155 
2 *49:24 *1054:RESET_B 8.44 
*END

*D_NET *50 0.0188155
*CONN
*I *1055:RESET_B I *D sky130_fd_sc_hd__dfrtp_4
*I *1021:Y O *D sky130_fd_sc_hd__inv_2
*CAP
1 *1055:RESET_B 0.0060233
2 *1021:Y 0.0060233
3 *1055:RESET_B *911:C1 0.000105928
4 *1055:RESET_B *916:B 0.000113828
5 *1055:RESET_B *933:C 0.000293726
6 *1055:RESET_B *952:A 0.000583488
7 *1055:RESET_B *984:B 2.02052e-05
8 *1055:RESET_B *1011:B 0.000135425
9 *1055:RESET_B *1059:RESET_B 0.000935462
10 *1055:RESET_B *1075:RESET_B 0
11 *1055:RESET_B *1097:A 6.15576e-06
12 *1055:RESET_B *62:26 0.00052478
13 *1055:RESET_B *80:18 6.63219e-06
14 *1055:RESET_B *93:20 0.000524155
15 *1055:RESET_B *93:30 0.000457866
16 *1055:RESET_B *148:41 4.2145e-05
17 *1055:RESET_B *168:26 0.000119366
18 *1055:RESET_B *175:159 1.88602e-05
19 *1055:RESET_B *201:40 2.13924e-05
20 *1055:RESET_B *203:60 0.000182975
21 *1063:D *1055:RESET_B 0.000146761
22 *1065:D *1055:RESET_B 0.00242667
23 *22:16 *1055:RESET_B 0.000103037
*RES
1 *1021:Y *1055:RESET_B 22.3093 
*END

*D_NET *51 0.00800546
*CONN
*I *1056:RESET_B I *D sky130_fd_sc_hd__dfrtp_2
*I *1022:Y O *D sky130_fd_sc_hd__inv_2
*CAP
1 *1056:RESET_B 5.27802e-05
2 *1022:Y 0.00198449
3 *51:26 0.00203727
4 *1056:RESET_B *903:A 2.74396e-05
5 *1056:RESET_B *1010:A 0.000109534
6 *1056:RESET_B *1012:B 2.79424e-05
7 *51:26 *889:C 9.68322e-05
8 *51:26 *907:A_N 3.98635e-05
9 *51:26 *907:B 0.000179744
10 *51:26 *912:A1 1.36444e-05
11 *51:26 *927:B 0.000831966
12 *51:26 *948:A 7.27003e-05
13 *51:26 *956:B 5.27486e-05
14 *51:26 *976:A 0
15 *51:26 *1012:A 0.000268153
16 *51:26 *1012:B 4.66108e-05
17 *51:26 *1022:A 3.64998e-06
18 *51:26 *1057:RESET_B 4.77719e-05
19 *51:26 *1061:CLK 0
20 *51:26 *1061:RESET_B 0.000444952
21 *51:26 *1084:D 0
22 *51:26 *1084:RESET_B 2.03356e-05
23 *51:26 *1088:A 0.000900909
24 *51:26 *148:41 6.04678e-05
25 *51:26 *162:34 1.29029e-05
26 *51:26 *168:26 0.000291899
27 *51:26 *178:33 1.92979e-05
28 *51:26 *188:22 0.000276222
29 *51:26 *188:102 0
30 *1061:D *51:26 7.52879e-05
31 *1075:D *51:26 1.00447e-05
*RES
1 *1022:Y *51:26 48.675 
2 *51:26 *1056:RESET_B 5.38 
*END

*D_NET *52 0.0070626
*CONN
*I *1057:RESET_B I *D sky130_fd_sc_hd__dfrtp_1
*I *1023:Y O *D sky130_fd_sc_hd__inv_2
*CAP
1 *1057:RESET_B 0.0021076
2 *1023:Y 0.0021076
3 *1057:RESET_B *889:C 0.000404269
4 *1057:RESET_B *897:B 0.000382099
5 *1057:RESET_B *1006:C 0.000588585
6 *1057:RESET_B *1023:A 0.000305049
7 *1057:RESET_B *162:34 0.000133774
8 *1057:RESET_B *175:63 9.77293e-05
9 *1057:RESET_B *179:10 0.000118081
10 *1057:RESET_B *207:18 0.000118676
11 *1061:D *1057:RESET_B 0.000651362
12 *51:26 *1057:RESET_B 4.77719e-05
*RES
1 *1023:Y *1057:RESET_B 37.9175 
*END

*D_NET *53 0.0104085
*CONN
*I *1058:RESET_B I *D sky130_fd_sc_hd__dfrtp_2
*I *1024:Y O *D sky130_fd_sc_hd__inv_2
*CAP
1 *1058:RESET_B 0.00219299
2 *1024:Y 0.00219299
3 *1058:RESET_B *889:C 0.000450498
4 *1058:RESET_B *904:A 4.20711e-05
5 *1058:RESET_B *964:A 0.000489861
6 *1058:RESET_B *982:A3 0.000323611
7 *1058:RESET_B *982:A4 1.31646e-05
8 *1058:RESET_B *991:A 1.73021e-05
9 *1058:RESET_B *995:A 0.000692611
10 *1058:RESET_B *1005:A 0.00254717
11 *1058:RESET_B *1069:RESET_B 0.000162095
12 *1058:RESET_B *1073:RESET_B 0.000113267
13 *1058:RESET_B *1075:RESET_B 0.000182969
14 *1058:RESET_B *103:66 0.000317329
15 *1058:RESET_B *146:72 0.0001946
16 *1058:RESET_B *146:78 3.92488e-05
17 *1058:RESET_B *146:80 8.53154e-05
18 *1058:RESET_B *177:22 4.25242e-05
19 *1058:RESET_B *208:8 0.00012669
20 *1058:RESET_B *208:93 4.05029e-05
21 *1058:RESET_B *220:10 2.18287e-05
22 *1058:RESET_B *222:16 0.000119873
*RES
1 *1024:Y *1058:RESET_B 32.5659 
*END

*D_NET *54 0.0142316
*CONN
*I *1059:RESET_B I *D sky130_fd_sc_hd__dfrtp_1
*I *1025:Y O *D sky130_fd_sc_hd__inv_2
*CAP
1 *1059:RESET_B 0.0042122
2 *1025:Y 0.0042122
3 *1059:RESET_B *890:B 1.25121e-05
4 *1059:RESET_B *908:A_N 0.000239072
5 *1059:RESET_B *908:C 0
6 *1059:RESET_B *916:A 0.000648395
7 *1059:RESET_B *933:C 0.000147765
8 *1059:RESET_B *1025:A 6.11525e-06
9 *1059:RESET_B *1070:CLK 0.000153333
10 *1059:RESET_B *1081:RESET_B 0.000979872
11 *1059:RESET_B *80:18 0
12 *1059:RESET_B *93:108 0
13 *1059:RESET_B *103:52 2.91892e-05
14 *1059:RESET_B *185:43 0.000133163
15 *1059:RESET_B *189:63 0.000326897
16 *1059:RESET_B *192:57 0
17 *1059:RESET_B *203:60 4.27433e-05
18 *1055:RESET_B *1059:RESET_B 0.000935462
19 *1063:D *1059:RESET_B 0.00215269
*RES
1 *1025:Y *1059:RESET_B 36.1785 
*END

*D_NET *55 0.00571095
*CONN
*I *1060:RESET_B I *D sky130_fd_sc_hd__dfrtp_2
*I *1026:Y O *D sky130_fd_sc_hd__inv_2
*CAP
1 *1060:RESET_B 0.00130329
2 *1026:Y 0.00130329
3 *1060:RESET_B *930:A 0.000392262
4 *1060:RESET_B *963:C 0
5 *1060:RESET_B *966:B 3.27181e-06
6 *1060:RESET_B *981:C1 0.000192506
7 *1060:RESET_B *1011:A 9.54251e-05
8 *1060:RESET_B *1066:RESET_B 0.0015516
9 *1060:RESET_B *1070:RESET_B 0.000655636
10 *1060:RESET_B *62:26 6.49e-05
11 *1060:RESET_B *142:18 0
12 *1060:RESET_B *194:31 3.18137e-05
13 *49:24 *1060:RESET_B 0.000116954
*RES
1 *1026:Y *1060:RESET_B 33.9425 
*END

*D_NET *56 0.00162695
*CONN
*I *1061:RESET_B I *D sky130_fd_sc_hd__dfrtp_1
*I *1027:Y O *D sky130_fd_sc_hd__inv_2
*CAP
1 *1061:RESET_B 0.000238448
2 *1027:Y 0.000238448
3 *1061:RESET_B *1003:B 0.000106338
4 *1061:RESET_B *162:34 0.000153816
5 *1061:D *1061:RESET_B 0.000444952
6 *51:26 *1061:RESET_B 0.000444952
*RES
1 *1027:Y *1061:RESET_B 12.89 
*END

*D_NET *57 0.00430048
*CONN
*I *1062:RESET_B I *D sky130_fd_sc_hd__dfrtp_2
*I *1028:Y O *D sky130_fd_sc_hd__inv_2
*CAP
1 *1062:RESET_B 0.00101196
2 *1028:Y 0.00101196
3 *1062:RESET_B *939:A1 0.000126737
4 *1062:RESET_B *945:B 0.000199458
5 *1062:RESET_B *952:A 0.00028583
6 *1062:RESET_B *995:A 3.04704e-05
7 *1062:RESET_B *995:B 0.000255134
8 *1062:RESET_B *997:C 0.000567721
9 *1062:RESET_B *1017:B1 0.000199703
10 *1062:RESET_B *1028:A 1.07285e-05
11 *1062:RESET_B *184:10 0.000210297
12 *1062:RESET_B *184:16 1.97486e-05
13 *1062:RESET_B *213:28 0.00012679
14 *997:A *1062:RESET_B 0.000132473
15 *35:10 *1062:RESET_B 0.000111469
*RES
1 *1028:Y *1062:RESET_B 28.1075 
*END

*D_NET *58 0.00143764
*CONN
*I *1063:RESET_B I *D sky130_fd_sc_hd__dfrtp_2
*I *1030:Y O *D sky130_fd_sc_hd__inv_2
*CAP
1 *1063:RESET_B 0.000417452
2 *1030:Y 0.000417452
3 *1063:RESET_B *895:B1 1.03323e-05
4 *1063:RESET_B *902:C 4.21889e-05
5 *1063:RESET_B *902:D 4.82919e-05
6 *1063:RESET_B *1063:CLK 0.000302981
7 *1063:RESET_B *182:85 0.000198939
*RES
1 *1030:Y *1063:RESET_B 9.3625 
*END

*D_NET *59 0.00677797
*CONN
*I *1064:RESET_B I *D sky130_fd_sc_hd__dfrtp_4
*I *1031:Y O *D sky130_fd_sc_hd__inv_2
*CAP
1 *1064:RESET_B 0.00151793
2 *1031:Y 0.00151793
3 *1064:RESET_B *907:D 6.08911e-05
4 *1064:RESET_B *909:B1 0.000582696
5 *1064:RESET_B *947:A 3.86781e-05
6 *1064:RESET_B *956:C 0.000765758
7 *1064:RESET_B *987:A 0.000280922
8 *1064:RESET_B *995:A 0.000157555
9 *1064:RESET_B *179:10 8.04434e-05
10 *1064:RESET_B *179:14 4.67901e-06
11 *1064:RESET_B *215:18 0
12 *1056:D *1064:RESET_B 0.000493596
13 *1073:D *1064:RESET_B 0.000178027
14 *22:16 *1064:RESET_B 0
15 *37:12 *1064:RESET_B 0.000238944
16 *48:22 *1064:RESET_B 0.000859912
*RES
1 *1031:Y *1064:RESET_B 41.3 
*END

*D_NET *60 0.0053771
*CONN
*I *1065:RESET_B I *D sky130_fd_sc_hd__dfrtp_2
*I *1032:Y O *D sky130_fd_sc_hd__inv_2
*CAP
1 *1065:RESET_B 0.00187759
2 *1032:Y 0.00187759
3 *1065:RESET_B *912:A2 1.83847e-05
4 *1065:RESET_B *981:B1 0.000108385
5 *1065:RESET_B *1007:A 0
6 *1065:RESET_B *1019:A 0.000438693
7 *1065:RESET_B *1032:A 3.1835e-05
8 *1065:RESET_B *1076:CLK 0
9 *1065:RESET_B *1076:RESET_B 4.20634e-05
10 *1065:RESET_B *71:22 0.000315309
11 *1065:RESET_B *175:103 4.91997e-05
12 *1065:RESET_B *215:18 0.000148113
13 *1076:D *1065:RESET_B 0.000467074
14 *48:22 *1065:RESET_B 2.8585e-06
*RES
1 *1032:Y *1065:RESET_B 33.8375 
*END

*D_NET *61 0.00869401
*CONN
*I *1066:RESET_B I *D sky130_fd_sc_hd__dfrtp_1
*I *1033:Y O *D sky130_fd_sc_hd__inv_2
*CAP
1 *1066:RESET_B 0.00193878
2 *1033:Y 0.00193878
3 *1066:RESET_B *912:B1_N 0.00031122
4 *1066:RESET_B *930:A 8.66853e-05
5 *1066:RESET_B *941:A 0.000298142
6 *1066:RESET_B *990:A 0.000227865
7 *1066:RESET_B *1071:RESET_B 0.00048465
8 *1066:RESET_B *91:27 0
9 *1066:RESET_B *181:92 5.57087e-05
10 *1066:RESET_B *181:100 0.000203376
11 *1066:RESET_B *187:45 8.23457e-05
12 *1066:RESET_B *203:48 3.23836e-05
13 *1066:RESET_B *205:12 0.000256448
14 *1060:RESET_B *1066:RESET_B 0.0015516
15 *49:24 *1066:RESET_B 0.00122603
*RES
1 *1033:Y *1066:RESET_B 36.2906 
*END

*D_NET *62 0.0156208
*CONN
*I *1067:RESET_B I *D sky130_fd_sc_hd__dfrtp_4
*I *1034:Y O *D sky130_fd_sc_hd__inv_2
*CAP
1 *1067:RESET_B 0
2 *1034:Y 0.00443046
3 *62:26 0.00443046
4 *62:26 *892:B 7.87237e-05
5 *62:26 *898:A1 0.000174447
6 *62:26 *908:D 0.000106634
7 *62:26 *930:A 1.2782e-05
8 *62:26 *944:A3 0.001139
9 *62:26 *945:A 4.99619e-05
10 *62:26 *945:D 3.67779e-05
11 *62:26 *952:A 0
12 *62:26 *964:A 0
13 *62:26 *988:B 2.90617e-05
14 *62:26 *992:A 0.000935383
15 *62:26 *1003:B 8.72683e-05
16 *62:26 *1027:A 7.18832e-05
17 *62:26 *93:20 0.00023316
18 *62:26 *93:30 0.000113353
19 *62:26 *94:10 7.06865e-05
20 *62:26 *117:47 0.000535668
21 *62:26 *142:18 2.61222e-05
22 *62:26 *148:41 0.000339187
23 *62:26 *166:69 7.98953e-05
24 *62:26 *175:80 0.00045432
25 *62:26 *201:40 7.37559e-05
26 *62:26 *203:60 5.14317e-05
27 *1003:A *62:26 0.000524028
28 *1055:RESET_B *62:26 0.00052478
29 *1060:RESET_B *62:26 6.49e-05
30 *22:16 *62:26 0.000946644
*RES
1 *1034:Y *62:26 49.8797 
2 *62:26 *1067:RESET_B 2 
*END

*D_NET *63 0.0122539
*CONN
*I *1068:RESET_B I *D sky130_fd_sc_hd__dfrtp_2
*I *1035:Y O *D sky130_fd_sc_hd__inv_2
*CAP
1 *1068:RESET_B 0.00257596
2 *1035:Y 0.00257596
3 *1068:RESET_B *918:A 0.000646041
4 *1068:RESET_B *939:A2 0.000593001
5 *1068:RESET_B *981:A1 0.000190137
6 *1068:RESET_B *1007:A 7.9247e-05
7 *1068:RESET_B *1014:B1_N 4.76303e-05
8 *1068:RESET_B *1035:A 6.69608e-06
9 *1068:RESET_B *1068:CLK 0.000646549
10 *1068:RESET_B *1075:RESET_B 0
11 *1068:RESET_B *1100:A 0.00251467
12 *1068:RESET_B *166:69 7.02017e-05
13 *1068:RESET_B *183:77 4.77769e-05
14 *1068:RESET_B *192:18 0.000229032
15 *1068:RESET_B *195:73 0
16 *1068:RESET_B *196:18 0.00151064
17 *1068:RESET_B *204:8 0
18 *1056:D *1068:RESET_B 3.46756e-05
19 *1062:D *1068:RESET_B 0.000166342
20 *1068:D *1068:RESET_B 0.000176921
21 *1069:D *1068:RESET_B 0.000142443
*RES
1 *1035:Y *1068:RESET_B 41.4661 
*END

*D_NET *64 0.00920129
*CONN
*I *1069:RESET_B I *D sky130_fd_sc_hd__dfrtp_1
*I *1036:Y O *D sky130_fd_sc_hd__inv_2
*CAP
1 *1069:RESET_B 0.00212358
2 *1036:Y 0.00212358
3 *1069:RESET_B *904:B 7.0772e-05
4 *1069:RESET_B *909:A2 0.000573288
5 *1069:RESET_B *939:A2 4.1235e-05
6 *1069:RESET_B *941:A 0.000130828
7 *1069:RESET_B *949:A 0.000123969
8 *1069:RESET_B *949:B 4.77757e-05
9 *1069:RESET_B *951:B 0.000175929
10 *1069:RESET_B *967:B 0.00160112
11 *1069:RESET_B *979:A 7.94585e-05
12 *1069:RESET_B *1040:A 0.00082032
13 *1069:RESET_B *1072:RESET_B 0.00029933
14 *1069:RESET_B *1073:RESET_B 7.51055e-05
15 *1069:RESET_B *1084:RESET_B 0.000119633
16 *1069:RESET_B *173:60 8.73147e-06
17 *1069:RESET_B *188:71 0.000412768
18 *1069:RESET_B *190:14 3.19851e-05
19 *1069:RESET_B *193:22 4.59914e-05
20 *1069:RESET_B *203:48 4.41205e-05
21 *1069:RESET_B *215:40 4.66474e-05
22 *1069:RESET_B *220:10 4.3033e-05
23 *1058:RESET_B *1069:RESET_B 0.000162095
*RES
1 *1036:Y *1069:RESET_B 47.6675 
*END

*D_NET *65 0.00515798
*CONN
*I *1070:RESET_B I *D sky130_fd_sc_hd__dfrtp_4
*I *1037:Y O *D sky130_fd_sc_hd__inv_2
*CAP
1 *1070:RESET_B 0.00107886
2 *1037:Y 0.00107886
3 *1070:RESET_B *899:B1 0.00026538
4 *1070:RESET_B *963:A 0.000515712
5 *1070:RESET_B *963:C 0.000379791
6 *1070:RESET_B *990:B 3.42656e-05
7 *1070:RESET_B *1000:A1 0
8 *1070:RESET_B *1000:A2 7.59644e-05
9 *1070:RESET_B *1037:A 0.000529594
10 *1070:RESET_B *119:47 0
11 *1070:RESET_B *175:153 6.57653e-06
12 *1070:RESET_B *175:159 0.000455883
13 *1070:RESET_B *176:118 1.72409e-05
14 *1070:RESET_B *177:57 3.80022e-05
15 *1070:RESET_B *194:31 2.62107e-05
16 *1060:RESET_B *1070:RESET_B 0.000655636
*RES
1 *1037:Y *1070:RESET_B 33.2525 
*END

*D_NET *66 0.00529984
*CONN
*I *1071:RESET_B I *D sky130_fd_sc_hd__dfrtp_4
*I *1038:Y O *D sky130_fd_sc_hd__inv_2
*CAP
1 *1071:RESET_B 0.00141817
2 *1038:Y 0.00141817
3 *1071:RESET_B *895:A1 6.95753e-05
4 *1071:RESET_B *910:A 0.000471316
5 *1071:RESET_B *910:C 7.70996e-05
6 *1071:RESET_B *929:C 7.00115e-05
7 *1071:RESET_B *930:A 1.29317e-05
8 *1071:RESET_B *931:B1 0.000156541
9 *1071:RESET_B *966:A 0.00040286
10 *1071:RESET_B *981:C1 3.37388e-05
11 *1071:RESET_B *1000:A1 1.64172e-05
12 *1071:RESET_B *1083:RESET_B 0.000227751
13 *1071:RESET_B *199:60 0.000285267
14 *1066:RESET_B *1071:RESET_B 0.00048465
15 *49:24 *1071:RESET_B 0.000155343
*RES
1 *1038:Y *1071:RESET_B 34.665 
*END

*D_NET *67 0.00602608
*CONN
*I *1072:RESET_B I *D sky130_fd_sc_hd__dfrtp_4
*I *1039:Y O *D sky130_fd_sc_hd__inv_2
*CAP
1 *1072:RESET_B 0.00113233
2 *1039:Y 0.00113233
3 *1072:RESET_B *894:B 0.000445035
4 *1072:RESET_B *905:B 0.000282765
5 *1072:RESET_B *905:C 2.49909e-05
6 *1072:RESET_B *909:A2 1.16578e-05
7 *1072:RESET_B *941:A 0.000390827
8 *1072:RESET_B *941:B 1.46828e-05
9 *1072:RESET_B *957:A 9.30717e-05
10 *1072:RESET_B *988:B 0.000597465
11 *1072:RESET_B *1084:RESET_B 0
12 *1072:RESET_B *85:16 0.000230626
13 *1072:RESET_B *192:86 0.00097636
14 *1072:RESET_B *193:22 2.64114e-05
15 *1072:RESET_B *197:41 0.000133856
16 *1072:RESET_B *198:33 0.000148378
17 *1072:RESET_B *208:34 0
18 *1069:RESET_B *1072:RESET_B 0.00029933
19 *1072:D *1072:RESET_B 4.96965e-05
20 *49:24 *1072:RESET_B 3.62646e-05
*RES
1 *1039:Y *1072:RESET_B 32.3375 
*END

*D_NET *68 0.0080986
*CONN
*I *1073:RESET_B I *D sky130_fd_sc_hd__dfrtp_2
*I *1041:Y O *D sky130_fd_sc_hd__inv_2
*CAP
1 *1073:RESET_B 0.00222285
2 *1041:Y 0.00222285
3 *1073:RESET_B *896:B1 0.000119762
4 *1073:RESET_B *899:A2 0.000446813
5 *1073:RESET_B *918:A 0.000183968
6 *1073:RESET_B *1000:A1 0.000921491
7 *1073:RESET_B *1009:C1 0.000489968
8 *1073:RESET_B *1020:A 1.42674e-05
9 *1073:RESET_B *1026:A 3.112e-05
10 *1073:RESET_B *1093:A 2.62017e-05
11 *1073:RESET_B *175:159 0.000500044
12 *1073:RESET_B *183:77 0.000493676
13 *1073:RESET_B *190:14 8.77232e-05
14 *1073:RESET_B *192:57 6.3124e-06
15 *1073:RESET_B *197:8 4.77719e-05
16 *1073:RESET_B *220:10 9.18057e-05
17 *1058:RESET_B *1073:RESET_B 0.000113267
18 *1069:RESET_B *1073:RESET_B 7.51055e-05
19 *49:24 *1073:RESET_B 3.59266e-06
*RES
1 *1041:Y *1073:RESET_B 46.8675 
*END

*D_NET *69 0.0168844
*CONN
*I *1074:RESET_B I *D sky130_fd_sc_hd__dfrtp_2
*I *1042:Y O *D sky130_fd_sc_hd__inv_2
*CAP
1 *1074:RESET_B 0.00241421
2 *1042:Y 0.00160017
3 *69:12 0.00401438
4 *1074:RESET_B *922:A 9.87949e-06
5 *1074:RESET_B *949:B 6.52988e-05
6 *1074:RESET_B *1011:B 0.000431861
7 *1074:RESET_B *1016:A 0.0017751
8 *1074:RESET_B *1050:A 0.00133712
9 *1074:RESET_B *1083:RESET_B 0.00109123
10 *1074:RESET_B *1100:A 0
11 *1074:RESET_B *86:51 0.000201103
12 *1074:RESET_B *126:47 7.50069e-05
13 *1074:RESET_B *188:63 8.86977e-05
14 *1074:RESET_B *199:18 0.000264849
15 *69:12 *1079:RESET_B 0
16 *69:12 *1099:A 3.83646e-05
17 *69:12 *205:12 4.11685e-05
18 *69:12 *213:14 0.00143449
19 an[3] *69:12 1.88656e-05
20 an[4] *69:12 1.88656e-05
21 an[5] *69:12 1.88656e-05
22 an[6] *69:12 4.13879e-05
23 seg[1] *69:12 1.88656e-05
24 seg[2] *69:12 1.88656e-05
25 seg[3] *69:12 1.88656e-05
26 seg[4] *1074:RESET_B 2.16336e-05
27 seg[4] *69:12 1.88656e-05
28 seg[5] *1074:RESET_B 9.21183e-06
29 *1054:D *69:12 2.65814e-06
30 *1061:D *1074:RESET_B 0.000143325
31 *1068:D *1074:RESET_B 0.000222817
32 *41:12 *69:12 0.0014284
*RES
1 *1042:Y *69:12 46.4525 
2 *69:12 *1074:RESET_B 14.1021 
*END

*D_NET *70 0.0219965
*CONN
*I *1075:RESET_B I *D sky130_fd_sc_hd__dfrtp_2
*I *1043:Y O *D sky130_fd_sc_hd__inv_2
*CAP
1 *1075:RESET_B 0.00795102
2 *1043:Y 0.00795102
3 *1075:RESET_B *911:A1 8.33237e-05
4 *1075:RESET_B *919:B 0.000278404
5 *1075:RESET_B *921:A 0
6 *1075:RESET_B *921:C 7.30505e-05
7 *1075:RESET_B *951:C 0.000279639
8 *1075:RESET_B *952:A 0
9 *1075:RESET_B *955:A 0.000164905
10 *1075:RESET_B *964:A 0.00297066
11 *1075:RESET_B *994:A1 3.96676e-05
12 *1075:RESET_B *1005:A 3.61749e-05
13 *1075:RESET_B *1032:A 6.03468e-05
14 *1075:RESET_B *1043:A 0
15 *1075:RESET_B *1068:CLK 0.000122821
16 *1075:RESET_B *1081:RESET_B 0.000622598
17 *1075:RESET_B *1097:A 0.000320493
18 *1075:RESET_B *101:18 1.91843e-05
19 *1075:RESET_B *167:43 9.88955e-05
20 *1075:RESET_B *177:123 0
21 *1075:RESET_B *195:63 4.03905e-05
22 *1075:RESET_B *213:14 0.000345556
23 *1075:RESET_B *213:28 0.000355392
24 *1055:RESET_B *1075:RESET_B 0
25 *1058:RESET_B *1075:RESET_B 0.000182969
26 *1068:RESET_B *1075:RESET_B 0
27 *1079:D *1075:RESET_B 0
28 *1086:A *1075:RESET_B 0
*RES
1 *1043:Y *1075:RESET_B 38.5674 
*END

*D_NET *71 0.00966841
*CONN
*I *1076:RESET_B I *D sky130_fd_sc_hd__dfrtp_2
*I *1044:Y O *D sky130_fd_sc_hd__inv_2
*CAP
1 *1076:RESET_B 4.87803e-05
2 *1044:Y 0.00216368
3 *71:22 0.00221246
4 *1076:RESET_B *910:B 2.34331e-05
5 *1076:RESET_B *1019:A 4.20634e-05
6 *71:22 *930:A 0.000986959
7 *71:22 *983:A 4.12837e-05
8 *71:22 *1007:A 0.000115549
9 *71:22 *1019:A 0.000274763
10 *71:22 *1038:A 4.21973e-05
11 *71:22 *1065:CLK 0.000982146
12 *71:22 *182:28 5.51624e-05
13 *71:22 *182:72 0.000264375
14 *71:22 *182:81 9.46109e-05
15 *71:22 *198:37 0.000733896
16 *1065:RESET_B *1076:RESET_B 4.20634e-05
17 *1065:RESET_B *71:22 0.000315309
18 *1071:D *71:22 0.000916808
19 *1072:D *71:22 7.52572e-05
20 *48:22 *71:22 0.000237613
*RES
1 *1044:Y *71:22 49.715 
2 *71:22 *1076:RESET_B 5.0125 
*END

*D_NET *72 0.00252347
*CONN
*I *1077:RESET_B I *D sky130_fd_sc_hd__dfrtp_1
*I *1045:Y O *D sky130_fd_sc_hd__inv_2
*CAP
1 *1077:RESET_B 0.000314604
2 *1045:Y 0.000314604
3 *1077:RESET_B *907:A_N 1.19928e-05
4 *1077:RESET_B *907:B 0.00019558
5 *1077:RESET_B *907:C 0.000703582
6 *1077:RESET_B *907:D 1.10377e-05
7 *1077:RESET_B *908:C 2.67275e-05
8 *1077:RESET_B *1025:A 0.000315901
9 *1077:RESET_B *1077:CLK 9.96764e-05
10 *1077:RESET_B *154:44 0.000207211
11 *1077:RESET_B *165:12 3.50481e-05
12 *1077:RESET_B *175:103 0.000185505
13 *1077:D *1077:RESET_B 0.000101999
*RES
1 *1045:Y *1077:RESET_B 13.0375 
*END

*D_NET *73 0.0134602
*CONN
*I *1078:RESET_B I *D sky130_fd_sc_hd__dfrtp_4
*I *1046:Y O *D sky130_fd_sc_hd__inv_2
*CAP
1 *1078:RESET_B 0.00318509
2 *1046:Y 0.00318509
3 *1078:RESET_B *944:B1 0.000203679
4 *1078:RESET_B *952:A 0.000371779
5 *1078:RESET_B *958:A 0.000117513
6 *1078:RESET_B *991:A 0.000187435
7 *1078:RESET_B *1005:B 0.000573445
8 *1078:RESET_B *1046:A 0.000107112
9 *1078:RESET_B *80:18 0.00035877
10 *1078:RESET_B *166:69 0.000451736
11 *1078:RESET_B *168:26 0.00101949
12 *1078:RESET_B *184:66 0.000152015
13 *1078:RESET_B *199:18 8.49744e-05
14 *1078:RESET_B *204:43 0.000973331
15 *1078:RESET_B *220:10 0.00023098
16 *1086:A *1078:RESET_B 0.000720973
17 *20:22 *1078:RESET_B 8.20839e-05
18 *22:16 *1078:RESET_B 6.50605e-05
19 *35:10 *1078:RESET_B 0.00138967
*RES
1 *1046:Y *1078:RESET_B 45.6193 
*END

*D_NET *74 0.0142127
*CONN
*I *1079:RESET_B I *D sky130_fd_sc_hd__dfrtp_2
*I *1047:Y O *D sky130_fd_sc_hd__inv_2
*CAP
1 *1079:RESET_B 0.00384824
2 *1047:Y 0.00384824
3 *1079:RESET_B *903:B 0.00313613
4 *1079:RESET_B *920:A2 0.000163634
5 *1079:RESET_B *921:C 4.88147e-05
6 *1079:RESET_B *950:B 0.000284717
7 *1079:RESET_B *982:A1 2.62526e-05
8 *1079:RESET_B *989:A 0
9 *1079:RESET_B *989:B 4.31856e-05
10 *1079:RESET_B *1009:A1 0.000108915
11 *1079:RESET_B *1010:A 0.00015125
12 *1079:RESET_B *1011:B 0
13 *1079:RESET_B *1095:A 0
14 *1079:RESET_B *1096:A 0
15 *1079:RESET_B *126:47 0.00031118
16 *1079:RESET_B *168:26 0.00029123
17 *1079:RESET_B *173:18 0.00044726
18 *1079:RESET_B *177:80 0.000675224
19 *1079:RESET_B *195:73 0.000298289
20 *1079:RESET_B *204:43 0.000401141
21 *1079:RESET_B *210:34 0
22 *1079:RESET_B *213:14 2.92939e-05
23 *1079:RESET_B *213:28 1.03191e-05
24 seg[0] *1079:RESET_B 1.96913e-05
25 *20:22 *1079:RESET_B 6.96952e-05
26 *69:12 *1079:RESET_B 0
*RES
1 *1047:Y *1079:RESET_B 46.4478 
*END

*D_NET *75 0.00340704
*CONN
*I *1080:RESET_B I *D sky130_fd_sc_hd__dfrtp_1
*I *1048:Y O *D sky130_fd_sc_hd__inv_2
*CAP
1 *1080:RESET_B 0.000986217
2 *1048:Y 0.000986217
3 *1080:RESET_B *902:A 3.93957e-05
4 *1080:RESET_B *924:C 0.00017016
5 *1080:RESET_B *989:B 0.000172392
6 *1080:RESET_B *1008:B2 0.000303586
7 *1080:RESET_B *1009:C1 8.33066e-06
8 *1080:RESET_B *1048:A 4.41506e-05
9 *1080:RESET_B *1080:CLK 4.41506e-05
10 *1080:RESET_B *117:10 9.43463e-05
11 *1080:RESET_B *117:47 0.000295782
12 *1080:RESET_B *207:18 0.00026231
*RES
1 *1048:Y *1080:RESET_B 23.0825 
*END

*D_NET *76 0.0136979
*CONN
*I *1081:RESET_B I *D sky130_fd_sc_hd__dfrtp_4
*I *1049:Y O *D sky130_fd_sc_hd__inv_2
*CAP
1 *1081:RESET_B 0.00303304
2 *1049:Y 0.00303304
3 *1081:RESET_B *917:C 0.00120955
4 *1081:RESET_B *933:B 0.000236193
5 *1081:RESET_B *945:C 0.00174808
6 *1081:RESET_B *952:A 0
7 *1081:RESET_B *1005:A 0
8 *1081:RESET_B *166:69 0.000138129
9 *1081:RESET_B *183:24 3.59637e-05
10 *1081:RESET_B *184:66 1.92979e-05
11 *1081:RESET_B *195:63 8.10313e-05
12 *1081:RESET_B *196:18 1.92979e-05
13 *1081:RESET_B *213:28 0.00209164
14 *1059:D *1081:RESET_B 0.000376044
15 *1059:RESET_B *1081:RESET_B 0.000979872
16 *1068:D *1081:RESET_B 1.32711e-05
17 *1075:RESET_B *1081:RESET_B 0.000622598
18 *1086:A *1081:RESET_B 0
19 *1094:A *1081:RESET_B 6.0889e-05
20 *32:16 *1081:RESET_B 0
*RES
1 *1049:Y *1081:RESET_B 49.6884 
*END

*D_NET *77 0.0067744
*CONN
*I *1082:RESET_B I *D sky130_fd_sc_hd__dfrtp_4
*I *1050:Y O *D sky130_fd_sc_hd__inv_2
*CAP
1 *1082:RESET_B 0.00160019
2 *1050:Y 0.00160019
3 *1082:RESET_B *1014:A1 9.00258e-05
4 *1082:RESET_B *1014:B1_N 0.00110874
5 *1082:RESET_B *1015:A2 2.10214e-05
6 *1082:RESET_B *1016:A 2.40673e-05
7 *1082:RESET_B *1018:A 8.23457e-05
8 *1082:RESET_B *1050:A 3.09774e-05
9 *1082:RESET_B *1082:CLK 0.000313881
10 *1082:RESET_B *1082:D 5.44178e-05
11 *1082:RESET_B *1099:A 0.000400498
12 *1082:RESET_B *133:34 4.91081e-05
13 *1082:RESET_B *173:60 0.000202156
14 *1082:RESET_B *175:16 0.000314521
15 *1082:RESET_B *179:35 8.54281e-05
16 *1082:RESET_B *184:10 7.95544e-05
17 *1082:RESET_B *215:32 0.000142951
18 *1082:RESET_B *215:40 4.27764e-05
19 *1082:RESET_B *219:16 0.000120655
20 *20:22 *1082:RESET_B 0.000410895
*RES
1 *1050:Y *1082:RESET_B 34.9225 
*END

*D_NET *78 0.0148733
*CONN
*I *1083:RESET_B I *D sky130_fd_sc_hd__dfrtp_4
*I *1051:Y O *D sky130_fd_sc_hd__inv_2
*CAP
1 *1083:RESET_B 0.00444835
2 *1051:Y 0.00444835
3 *1083:RESET_B *891:B 8.23457e-05
4 *1083:RESET_B *942:C 3.92756e-05
5 *1083:RESET_B *953:A2 0.00011381
6 *1083:RESET_B *981:A1 0.000164407
7 *1083:RESET_B *986:B 5.75488e-05
8 *1083:RESET_B *988:B 0.000329177
9 *1083:RESET_B *1016:A 7.41728e-05
10 *1083:RESET_B *1017:A2 0.000164556
11 *1083:RESET_B *86:43 4.12356e-05
12 *1083:RESET_B *126:51 0.000200555
13 *1083:RESET_B *126:72 0.000421242
14 *1083:RESET_B *126:97 0.000793458
15 *1083:RESET_B *184:33 5.75488e-05
16 *1083:RESET_B *199:60 0.000297537
17 *1083:RESET_B *208:34 8.34852e-05
18 *1065:D *1083:RESET_B 0.000268765
19 *1068:D *1083:RESET_B 0.000749824
20 *1069:D *1083:RESET_B 0.000718636
21 *1071:RESET_B *1083:RESET_B 0.000227751
22 *1074:RESET_B *1083:RESET_B 0.00109123
*RES
1 *1051:Y *1083:RESET_B 24.9516 
*END

*D_NET *79 0.00693157
*CONN
*I *1084:RESET_B I *D sky130_fd_sc_hd__dfrtp_4
*I *1052:Y O *D sky130_fd_sc_hd__inv_2
*CAP
1 *1084:RESET_B 0.00142022
2 *1052:Y 0.00142022
3 *1084:RESET_B *889:C 0.000154982
4 *1084:RESET_B *905:C 0.000212888
5 *1084:RESET_B *905:D 1.32517e-05
6 *1084:RESET_B *929:A 4.16253e-05
7 *1084:RESET_B *929:C 0.000240342
8 *1084:RESET_B *937:A 3.69766e-05
9 *1084:RESET_B *941:A 0.000132178
10 *1084:RESET_B *942:A 0.00026397
11 *1084:RESET_B *947:A 8.23457e-05
12 *1084:RESET_B *967:B 8.88236e-05
13 *1084:RESET_B *1012:A 4.21579e-05
14 *1084:RESET_B *1012:B 0.00019312
15 *1084:RESET_B *1035:A 9.05592e-05
16 *1084:RESET_B *1090:A 7.10899e-05
17 *1084:RESET_B *117:47 7.55395e-05
18 *1084:RESET_B *146:28 0.00021599
19 *1084:RESET_B *158:20 2.53191e-06
20 *1084:RESET_B *159:24 0.000774983
21 *1084:RESET_B *190:14 9.10613e-05
22 *1084:RESET_B *201:40 9.05535e-05
23 *1084:RESET_B *202:24 5.63636e-05
24 *1084:RESET_B *203:48 0.000579728
25 *1084:RESET_B *208:34 0.000400102
26 *1069:RESET_B *1084:RESET_B 0.000119633
27 *1072:RESET_B *1084:RESET_B 0
28 *51:26 *1084:RESET_B 2.03356e-05
*RES
1 *1052:Y *1084:RESET_B 41.0628 
*END

*D_NET *80 0.013892
*CONN
*I *225:DIODE I *D sky130_fd_sc_hd__diode_2
*I *1081:D I *D sky130_fd_sc_hd__dfrtp_4
*I *899:X O *D sky130_fd_sc_hd__o21a_1
*CAP
1 *225:DIODE 0
2 *1081:D 0.000182628
3 *899:X 0.00545147
4 *80:18 0.00563409
5 *1081:D *1081:CLK 7.35729e-05
6 *1081:D *183:24 4.39205e-05
7 *80:18 *902:A 1.88656e-05
8 *80:18 *908:A_N 0.000226155
9 *80:18 *908:B 0
10 *80:18 *912:B1_N 0
11 *80:18 *924:C 1.88656e-05
12 *80:18 *929:C 0.000123645
13 *80:18 *944:B1 0.000206016
14 *80:18 *984:B 0
15 *80:18 *992:A 0
16 *80:18 *994:A1 0
17 *80:18 *103:38 2.11722e-05
18 *80:18 *189:63 0.000124324
19 *80:18 *198:33 3.86025e-05
20 *80:18 *203:48 6.42305e-05
21 *80:18 *205:12 0
22 *933:A *80:18 0
23 *1055:RESET_B *80:18 6.63219e-06
24 *1059:D *80:18 0.000947986
25 *1059:RESET_B *80:18 0
26 *1063:D *80:18 0
27 *1078:RESET_B *80:18 0.00035877
28 *35:10 *80:18 0.000351029
*RES
1 *899:X *80:18 34.9755 
2 *80:18 *1081:D 4.495 
3 *80:18 *225:DIODE 1.6 
*END

*D_NET *81 0.0052079
*CONN
*I *1082:D I *D sky130_fd_sc_hd__dfrtp_4
*I *897:Y O *D sky130_fd_sc_hd__nor2_1
*CAP
1 *1082:D 0.000660704
2 *897:Y 0.000660704
3 *1082:D *889:A 8.73147e-06
4 *1082:D *1016:A 0.000598901
5 *1082:D *1082:CLK 0.000523677
6 *1082:D *84:12 0.00134472
7 *1082:D *179:14 0.000146532
8 *1082:D *179:16 0.000184273
9 *1082:D *179:18 0.000337525
10 *1082:D *179:22 0.000678586
11 *1056:D *1082:D 9.12857e-06
12 *1082:RESET_B *1082:D 5.44178e-05
*RES
1 *897:Y *1082:D 30.315 
*END

*D_NET *82 0.000596238
*CONN
*I *1083:D I *D sky130_fd_sc_hd__dfrtp_4
*I *895:Y O *D sky130_fd_sc_hd__a211oi_1
*CAP
1 *1083:D 0.000203008
2 *895:Y 0.000203008
3 *1083:D *895:B1 7.50352e-05
4 *1083:D *966:C 0.000115187
5 *1083:D *195:22 0
*RES
1 *895:Y *1083:D 10.755 
*END

*D_NET *83 0.0052651
*CONN
*I *1084:D I *D sky130_fd_sc_hd__dfrtp_4
*I *891:X O *D sky130_fd_sc_hd__xor2_1
*CAP
1 *1084:D 0.0017755
2 *891:X 0.0017755
3 *1084:D *891:A 0.000156765
4 *1084:D *907:A_N 1.16597e-05
5 *1084:D *907:C 1.7635e-05
6 *1084:D *912:B1_N 7.10593e-06
7 *1084:D *934:A 4.02996e-05
8 *1084:D *937:A 0.000129921
9 *1084:D *942:B 1.2578e-05
10 *1084:D *972:A2 2.01504e-05
11 *1084:D *103:14 1.77665e-05
12 *1084:D *103:24 1.85996e-05
13 *1084:D *112:75 0.000192125
14 *1084:D *112:96 0.000195854
15 *1084:D *118:38 0.00025761
16 *1084:D *154:44 0.000137535
17 *1084:D *186:8 1.99477e-05
18 *1084:D *188:102 0.00017051
19 *1077:D *1084:D 0.00017754
20 *20:152 *1084:D 9.47267e-06
21 *20:175 *1084:D 0.000121031
22 *51:26 *1084:D 0
*RES
1 *891:X *1084:D 39.385 
*END

*D_NET *84 0.0217286
*CONN
*I *894:B I *D sky130_fd_sc_hd__nor2_1
*I *890:B I *D sky130_fd_sc_hd__and2_1
*I *897:A I *D sky130_fd_sc_hd__nor2_1
*I *889:X O *D sky130_fd_sc_hd__and3_1
*CAP
1 *894:B 0.00159881
2 *890:B 2.93433e-05
3 *897:A 2.83646e-05
4 *889:X 0.000877858
5 *84:39 0.00307206
6 *84:12 0.00235013
7 *890:B *103:38 1.9417e-05
8 *890:B *185:43 9.50342e-06
9 *890:B *189:63 1.88904e-05
10 *894:B *899:A1 0.000558189
11 *894:B *902:A 8.28201e-05
12 *894:B *924:C 4.5783e-05
13 *894:B *931:A2 4.82919e-05
14 *894:B *931:B1 4.82919e-05
15 *894:B *941:A 0.000514048
16 *894:B *941:B 0.000449095
17 *894:B *942:C 4.26733e-05
18 *894:B *983:C 1.7635e-05
19 *894:B *983:D 0.00159128
20 *894:B *989:A 0.000630421
21 *894:B *989:B 0.000338212
22 *894:B *117:47 0.00046088
23 *894:B *199:60 0.000180977
24 *894:B *214:72 0.00015639
25 *897:A *897:B 1.77945e-05
26 *84:12 *889:A 8.28334e-05
27 *84:12 *995:B 0.00110989
28 *84:12 *1074:CLK 0
29 *84:39 *897:B 0.000119873
30 *84:39 *907:D 6.33103e-05
31 *84:39 *941:B 0.000521242
32 *84:39 *956:B 0.000153816
33 *84:39 *956:C 6.07575e-06
34 *84:39 *957:A 0.000626183
35 *84:39 *972:A1 0.00132294
36 *84:39 *1004:B1 0.00066898
37 *84:39 *103:38 0
38 *84:39 *176:118 0.000661914
39 *84:39 *178:8 4.82863e-05
40 *84:39 *189:63 0.000110499
41 *997:A *84:12 2.0187e-05
42 *1056:D *84:12 0.000428558
43 *1056:D *84:39 2.39856e-05
44 *1059:RESET_B *890:B 1.25121e-05
45 *1063:D *894:B 0.000102134
46 *1070:D *84:39 0
47 *1072:RESET_B *894:B 0.000445035
48 *1082:D *84:12 0.00134472
49 *48:22 *84:39 0.000668443
*RES
1 *889:X *84:12 28.97 
2 *84:12 *897:A 2.215 
3 *84:12 *84:39 40.665 
4 *84:39 *890:B 4.215 
5 *84:39 *894:B 46.525 
*END

*D_NET *85 0.0106947
*CONN
*I *895:C1 I *D sky130_fd_sc_hd__a211oi_1
*I *891:B I *D sky130_fd_sc_hd__xor2_1
*I *890:X O *D sky130_fd_sc_hd__and2_1
*CAP
1 *895:C1 0.000127711
2 *891:B 0.00114536
3 *890:X 0.0011713
4 *85:16 0.00244437
5 *891:B *895:A2 8.58007e-05
6 *891:B *927:A 1.79483e-05
7 *891:B *929:C 6.83447e-05
8 *891:B *934:A 3.32129e-05
9 *891:B *942:B 0.000108669
10 *891:B *953:A2 0.000907932
11 *891:B *1038:A 4.95182e-05
12 *891:B *86:6 4.77719e-05
13 *891:B *86:43 0.000232999
14 *891:B *118:38 4.11718e-05
15 *891:B *183:24 0.000258434
16 *891:B *199:41 2.75229e-05
17 *891:B *199:60 0.0001022
18 *891:B *208:34 9.90619e-05
19 *895:C1 *895:A1 2.26739e-05
20 *895:C1 *895:A2 0.000224463
21 *895:C1 *895:B1 2.86975e-05
22 *895:C1 *1038:A 0.000182563
23 *85:16 *895:A1 0.000948732
24 *85:16 *929:C 0.000162621
25 *85:16 *966:A 3.69766e-05
26 *85:16 *967:B 0.000450447
27 *85:16 *1001:A 0.000154003
28 *85:16 *1054:CLK 0
29 *85:16 *102:51 3.20802e-05
30 *85:16 *112:117 0
31 *85:16 *158:20 0.00116911
32 *85:16 *189:33 0
33 *85:16 *189:63 0
34 *85:16 *195:22 0
35 *1072:RESET_B *85:16 0.000230626
36 *1083:RESET_B *891:B 8.23457e-05
*RES
1 *890:X *85:16 32.15 
2 *85:16 *891:B 30.24 
3 *85:16 *895:C1 5.62 
*END

*D_NET *86 0.0323337
*CONN
*I *1011:A I *D sky130_fd_sc_hd__nor2_1
*I *1015:B1 I *D sky130_fd_sc_hd__a21oi_1
*I *1016:A I *D sky130_fd_sc_hd__inv_2
*I *893:B I *D sky130_fd_sc_hd__and2_1
*I *892:Y O *D sky130_fd_sc_hd__nor3_2
*CAP
1 *1011:A 0.000893409
2 *1015:B1 1.07174e-05
3 *1016:A 0.00277382
4 *893:B 0.000521069
5 *892:Y 1.02931e-05
6 *86:51 0.00704482
7 *86:43 0.00601218
8 *86:6 0.00138984
9 *893:B *910:C 2.22315e-05
10 *893:B *953:A2 9.22294e-06
11 *893:B *953:B1 0.000639352
12 *893:B *977:A 2.58293e-06
13 *893:B *87:32 6.91432e-05
14 *893:B *189:10 4.61701e-06
15 *893:B *189:33 0.000113633
16 *893:B *200:35 0.000822792
17 *1011:A *933:B 0.000314456
18 *1011:A *1011:B 8.52883e-05
19 *1011:A *1096:A 0.000156758
20 *1011:A *101:18 0.000284321
21 *1011:A *102:51 0.00117747
22 *1011:A *187:47 6.11912e-05
23 *1011:A *195:12 5.98468e-05
24 *1011:A *210:34 4.23591e-05
25 *1015:B1 *967:B 1.00941e-05
26 *1015:B1 *1015:A1 5.02126e-06
27 *1015:B1 *1050:A 8.7152e-06
28 *1016:A *951:B 0.000932566
29 *1016:A *986:B 0
30 *1016:A *991:A 0.000104247
31 *1016:A *1004:B1 0.000227437
32 *1016:A *1011:B 6.73985e-05
33 *1016:A *1017:A2 0.000380376
34 *1016:A *1082:CLK 2.21074e-05
35 *1016:A *133:34 0.000118081
36 *1016:A *179:35 8.06242e-05
37 *1016:A *184:10 0.00038685
38 *1016:A *188:22 8.20907e-05
39 *1016:A *215:32 1.88602e-05
40 *86:6 *953:A2 4.77719e-05
41 *86:43 *892:A 0.000149176
42 *86:43 *942:C 0.000340448
43 *86:43 *953:A2 0.000151987
44 *86:43 *988:B 0.000120164
45 *86:43 *1054:CLK 9.71141e-05
46 *86:43 *101:18 0.00079508
47 *86:43 *102:51 0.000329011
48 *86:43 *186:40 0.000140585
49 *86:43 *189:63 3.28414e-05
50 *86:43 *199:41 0.000164769
51 *86:51 *1009:A1 0.00138254
52 *86:51 *1011:B 2.98855e-05
53 *86:51 *167:20 2.60661e-05
54 *891:B *86:6 4.77719e-05
55 *891:B *86:43 0.000232999
56 *1060:RESET_B *1011:A 9.54251e-05
57 *1065:D *1011:A 0.000248887
58 *1065:D *86:43 0.000164415
59 *1065:D *86:51 0
60 *1074:RESET_B *1016:A 0.0017751
61 *1074:RESET_B *86:51 0.000201103
62 *1077:D *86:51 0
63 *1082:D *1016:A 0.000598901
64 *1082:RESET_B *1016:A 2.40673e-05
65 *1083:RESET_B *1016:A 7.41728e-05
66 *1083:RESET_B *86:43 4.12356e-05
67 *20:175 *893:B 5.63183e-05
*RES
1 *892:Y *86:6 2.05 
2 *86:6 *893:B 9.14987 
3 *86:6 *86:43 13.4174 
4 *86:43 *86:51 8.02873 
5 *86:51 *1016:A 27.0313 
6 *86:51 *1015:B1 4.3325 
7 *86:43 *1011:A 13.4959 
*END

*D_NET *87 0.0184374
*CONN
*I *895:A2 I *D sky130_fd_sc_hd__a211oi_1
*I *1017:B1 I *D sky130_fd_sc_hd__a21oi_1
*I *898:B1 I *D sky130_fd_sc_hd__a21oi_1
*I *893:X O *D sky130_fd_sc_hd__and2_1
*CAP
1 *895:A2 0.000539043
2 *1017:B1 0.000467308
3 *898:B1 5.58394e-05
4 *893:X 0.000424536
5 *87:65 0.00229528
6 *87:44 0.00248925
7 *87:32 0.00156902
8 *895:A2 *895:A1 0.000271074
9 *895:A2 *901:B1 8.39329e-05
10 *895:A2 *911:A1 0.000351471
11 *895:A2 *927:A 0.000457264
12 *895:A2 *929:C 0.000102831
13 *895:A2 *994:A2 7.40446e-05
14 *895:A2 *1038:A 2.47045e-05
15 *898:B1 *898:A1 4.66108e-05
16 *898:B1 *899:B1 1.08758e-05
17 *898:B1 *956:B 0.000110326
18 *898:B1 *960:B 1.41095e-05
19 *898:B1 *162:34 0.000111993
20 *1017:B1 *945:B 0.000117065
21 *1017:B1 *955:A 1.79536e-05
22 *1017:B1 *1017:A2 0.00016451
23 *1017:B1 *1028:A 9.12494e-06
24 *1017:B1 *175:50 0.00120166
25 *1017:B1 *184:10 5.1985e-06
26 *1017:B1 *212:25 0.000170806
27 *87:32 *911:A1 0.000121643
28 *87:32 *953:B1 1.74805e-05
29 *87:32 *977:A 0.000156031
30 *87:32 *994:A1 2.34662e-05
31 *87:32 *994:A2 8.52845e-05
32 *87:32 *994:B1 2.2142e-05
33 *87:32 *183:24 7.59573e-06
34 *87:32 *195:28 8.97812e-05
35 *87:32 *200:35 3.33001e-05
36 *87:32 *201:40 8.72586e-05
37 *87:44 *934:A 7.23042e-05
38 *87:44 *943:A 1.88656e-05
39 *87:44 *956:B 0.000658911
40 *87:44 *970:A 1.7635e-05
41 *87:44 *994:A1 5.83898e-05
42 *87:44 *101:18 0.000103103
43 *87:44 *154:44 1.88656e-05
44 *87:44 *159:24 0.000168689
45 *87:44 *162:34 0.000650246
46 *87:44 *183:28 8.70967e-05
47 *87:65 *908:A_N 0.000334515
48 *87:65 *955:A 7.70952e-06
49 *87:65 *960:B 0.000504745
50 *87:65 *1032:A 1.52776e-05
51 *87:65 *1045:A 6.37837e-05
52 *87:65 *93:40 0.000663986
53 *87:65 *93:50 0.000774784
54 *87:65 *146:72 0.000196991
55 *87:65 *175:50 0.000512276
56 *87:65 *177:22 0.000482052
57 *891:B *895:A2 8.58007e-05
58 *893:B *87:32 6.91432e-05
59 *895:C1 *895:A2 0.000224463
60 *1003:A *87:65 0.0004864
61 *1062:RESET_B *1017:B1 0.000199703
62 *20:175 *87:32 0.000131842
*RES
1 *893:X *87:32 11.9954 
2 *87:32 *87:44 16.2893 
3 *87:44 *898:B1 5.43 
4 *87:44 *87:65 40.6975 
5 *87:65 *1017:B1 18.3675 
6 *87:32 *895:A2 15.865 
*END

*D_NET *88 0.00380322
*CONN
*I *895:B1 I *D sky130_fd_sc_hd__a211oi_1
*I *894:Y O *D sky130_fd_sc_hd__nor2_1
*CAP
1 *895:B1 0.00133227
2 *894:Y 0.00133227
3 *895:B1 *902:A 5.23024e-05
4 *895:B1 *910:B 2.96761e-05
5 *895:B1 *931:A2 8.65905e-05
6 *895:B1 *966:C 2.20732e-05
7 *895:B1 *983:A 0
8 *895:B1 *1063:CLK 0.000184866
9 *895:B1 *142:18 0.000120655
10 *895:B1 *182:85 0.000456569
11 *895:C1 *895:B1 2.86975e-05
12 *1063:D *895:B1 7.18805e-05
13 *1063:RESET_B *895:B1 1.03323e-05
14 *1083:D *895:B1 7.50352e-05
*RES
1 *894:Y *895:B1 25.425 
*END

*D_NET *89 0.00640472
*CONN
*I *897:B I *D sky130_fd_sc_hd__nor2_1
*I *896:Y O *D sky130_fd_sc_hd__a21oi_1
*CAP
1 *897:B 0.00138488
2 *896:Y 0.00138488
3 *897:B *918:A 0.00119639
4 *897:B *1073:CLK 0.00010163
5 *897:B *1091:A 0.000119247
6 *897:B *162:34 0.000383759
7 *897:B *214:43 0.000852896
8 *897:A *897:B 1.77945e-05
9 *1056:D *897:B 0.000437732
10 *1057:RESET_B *897:B 0.000382099
11 *1073:D *897:B 2.35435e-05
12 *84:39 *897:B 0.000119873
*RES
1 *896:Y *897:B 36.735 
*END

*D_NET *90 0.00842212
*CONN
*I *899:B1 I *D sky130_fd_sc_hd__o21a_1
*I *898:Y O *D sky130_fd_sc_hd__a21oi_1
*CAP
1 *899:B1 0.00212347
2 *898:Y 0.00212347
3 *899:B1 *898:A1 0.000106782
4 *899:B1 *899:A1 0.000193801
5 *899:B1 *931:B1 0.000627009
6 *899:B1 *941:B 4.87117e-05
7 *899:B1 *960:B 0.000184914
8 *899:B1 *960:C 5.51874e-05
9 *899:B1 *971:A 0.00030615
10 *899:B1 *983:D 0.000263903
11 *899:B1 *1001:A 0.000634493
12 *899:B1 *1090:A 4.96505e-05
13 *899:B1 *176:118 4.77719e-05
14 *899:B1 *176:135 0.000625342
15 *899:B1 *208:34 0.000163877
16 *898:B1 *899:B1 1.08758e-05
17 *960:A *899:B1 3.83194e-05
18 *1067:D *899:B1 0.00017262
19 *1070:RESET_B *899:B1 0.00026538
20 *20:152 *899:B1 0.000380399
*RES
1 *898:Y *899:B1 44.625 
*END

*D_NET *91 0.0205883
*CONN
*I *912:A1 I *D sky130_fd_sc_hd__a21bo_4
*I *1005:B I *D sky130_fd_sc_hd__or3_1
*I *1008:B2 I *D sky130_fd_sc_hd__a2bb2o_1
*I *900:Y O *D sky130_fd_sc_hd__inv_2
*CAP
1 *912:A1 0.000940126
2 *1005:B 0.00168498
3 *1008:B2 0.000317872
4 *900:Y 0
5 *91:27 0.00639565
6 *91:6 0.00408842
7 *912:A1 *907:B 0.000642018
8 *912:A1 *964:A 4.0031e-05
9 *912:A1 *1004:B1 0.000575743
10 *912:A1 *148:41 0.000815847
11 *912:A1 *180:45 0
12 *912:A1 *188:22 0.000500643
13 *912:A1 *193:30 0.00021506
14 *1005:B *944:B1 0.00074452
15 *1005:B *1005:A 7.3345e-05
16 *1005:B *166:69 7.08493e-05
17 *1008:B2 *900:A 0.000330308
18 *1008:B2 *920:B1 4.77757e-05
19 *1008:B2 *1008:A1_N 2.20014e-05
20 *1008:B2 *1008:A2_N 0.00037454
21 *1008:B2 *117:10 4.47125e-05
22 *1008:B2 *166:8 0.000177417
23 *1008:B2 *187:55 8.7152e-06
24 *91:27 *912:B1_N 0
25 *91:27 *917:C 0.000217815
26 *91:27 *919:B 5.02126e-06
27 *91:27 *946:A 4.52302e-05
28 *91:27 *957:A 0.00022122
29 *91:27 *1004:B1 0.000253654
30 *91:27 *167:43 0
31 *91:27 *177:80 9.40994e-05
32 *91:27 *178:33 0.000376616
33 *91:27 *187:55 1.88602e-05
34 *91:27 *188:22 0.000132871
35 *1059:D *1005:B 0
36 *1066:RESET_B *91:27 0
37 *1078:RESET_B *1005:B 0.000573445
38 *1080:RESET_B *1008:B2 0.000303586
39 *1086:A *1005:B 5.848e-05
40 *22:16 *1005:B 0.000163141
41 *51:26 *912:A1 1.36444e-05
*RES
1 *900:Y *91:6 3.6 
2 *91:6 *1008:B2 12.81 
3 *91:6 *91:27 10.3787 
4 *91:27 *1005:B 18.9018 
5 *91:27 *912:A1 28.8225 
*END

*D_NET *92 0.0079818
*CONN
*I *911:A1 I *D sky130_fd_sc_hd__o211ai_4
*I *901:X O *D sky130_fd_sc_hd__a21o_1
*CAP
1 *911:A1 0.00125497
2 *901:X 0.00125497
3 *911:A1 *911:B1 0.000563589
4 *911:A1 *927:A 0.000994439
5 *911:A1 *929:B 9.86129e-05
6 *911:A1 *977:A 4.66742e-05
7 *911:A1 *978:B 0.00088418
8 *911:A1 *992:A 0.000200742
9 *911:A1 *994:A1 1.19928e-05
10 *911:A1 *1032:A 0.000144594
11 *911:A1 *101:18 1.92979e-05
12 *911:A1 *102:14 2.05056e-05
13 *911:A1 *195:28 0.000116825
14 *911:A1 *200:35 1.7635e-05
15 *895:A2 *911:A1 0.000351471
16 *1075:D *911:A1 2.51225e-05
17 *1075:RESET_B *911:A1 8.33237e-05
18 *20:195 *911:A1 0.00159855
19 *35:10 *911:A1 0.000172664
20 *87:32 *911:A1 0.000121643
*RES
1 *901:X *911:A1 42.375 
*END

*D_NET *93 0.0357363
*CONN
*I *931:A2 I *D sky130_fd_sc_hd__a21oi_1
*I *928:B I *D sky130_fd_sc_hd__or2_1
*I *932:C I *D sky130_fd_sc_hd__and3_1
*I *904:A I *D sky130_fd_sc_hd__and2_1
*I *924:A_N I *D sky130_fd_sc_hd__and3b_1
*I *927:B I *D sky130_fd_sc_hd__nand2_1
*I *944:A2 I *D sky130_fd_sc_hd__a31o_1
*I *945:C I *D sky130_fd_sc_hd__and4_2
*I *902:X O *D sky130_fd_sc_hd__and4_4
*CAP
1 *931:A2 0.000562787
2 *928:B 1.02931e-05
3 *932:C 0.000314889
4 *904:A 0.00128564
5 *924:A_N 0
6 *927:B 0.00043687
7 *944:A2 0
8 *945:C 0.00116585
9 *902:X 3.26488e-05
10 *93:110 0.00170151
11 *93:108 0.000715387
12 *93:50 0.00191689
13 *93:40 0.00185401
14 *93:30 0.00109418
15 *93:20 0.00215572
16 *93:10 0.00171895
17 *904:A *917:C 3.91191e-05
18 *904:A *922:A 0.000198987
19 *904:A *939:A2 1.7635e-05
20 *904:A *950:B 1.89738e-05
21 *904:A *954:B 0
22 *904:A *963:B 0
23 *904:A *979:A 4.55895e-05
24 *904:A *979:B 2.86975e-05
25 *904:A *1011:B 4.7259e-05
26 *904:A *1015:A1 0.00099893
27 *904:A *1050:A 2.60673e-05
28 *904:A *103:52 0.000141702
29 *904:A *133:34 0.000234021
30 *904:A *177:12 0.000109541
31 *904:A *183:81 4.97933e-05
32 *904:A *193:22 0
33 *904:A *203:48 0
34 *904:A *204:43 1.98085e-05
35 *904:A *208:93 2.16952e-05
36 *927:B *934:A 0
37 *927:B *934:B 5.68523e-06
38 *927:B *977:A 3.46053e-05
39 *927:B *1019:A 0.000113797
40 *927:B *148:41 0.000813189
41 *928:B *932:B 4.77719e-05
42 *928:B *1093:A 4.77719e-05
43 *931:A2 *931:B1 0.000481136
44 *931:A2 *933:B 9.76407e-06
45 *932:C *896:A1 4.77719e-05
46 *932:C *906:D 0.000166307
47 *932:C *917:C 0.000174407
48 *932:C *932:A 4.66108e-05
49 *932:C *183:81 0
50 *932:C *214:62 0.000179523
51 *945:C *916:A 2.86975e-05
52 *945:C *916:B 0.000385726
53 *945:C *944:A3 2.49909e-05
54 *945:C *947:B 1.56428e-05
55 *93:10 *983:B 0.000117175
56 *93:10 *1060:CLK 0.000117175
57 *93:20 *910:A 5.83217e-05
58 *93:20 *930:A 2.72637e-05
59 *93:20 *931:B1 9.27495e-05
60 *93:20 *971:A 0.00103049
61 *93:20 *981:C1 0.000571851
62 *93:20 *983:B 5.7924e-05
63 *93:20 *1000:A1 0.000259903
64 *93:20 *117:47 0
65 *93:30 *924:B 4.77757e-05
66 *93:30 *999:B 0.000181617
67 *93:30 *103:38 9.22294e-06
68 *93:40 *937:A 0.000155601
69 *93:40 *942:A 0.00027566
70 *93:40 *972:A1 0
71 *93:40 *972:A2 2.0851e-06
72 *93:40 *976:A 0.000411108
73 *93:40 *999:B 0.000737747
74 *93:40 *103:24 0.000207643
75 *93:40 *146:28 0.00047337
76 *93:40 *146:38 0.000191232
77 *93:40 *183:61 0.000665491
78 *93:50 *911:C1 0.000159495
79 *93:50 *916:B 0.000688291
80 *93:50 *944:A1 0.000173266
81 *93:50 *948:A 7.9642e-06
82 *93:50 *968:A 4.54581e-05
83 *93:50 *1004:A1 1.17036e-05
84 *93:50 *146:72 8.247e-05
85 *93:50 *177:22 0.00034953
86 *93:108 *906:D 0.000439177
87 *93:108 *929:C 0.000711707
88 *93:108 *960:C 7.96104e-06
89 *93:108 *970:C 0.000741583
90 *93:108 *189:63 0
91 *93:108 *206:18 0
92 *93:110 *906:D 0.000162443
93 *93:110 *103:52 0
94 *93:110 *208:93 0
95 *894:B *931:A2 4.82919e-05
96 *895:B1 *931:A2 8.65905e-05
97 *1055:RESET_B *93:20 0.000524155
98 *1055:RESET_B *93:30 0.000457866
99 *1058:RESET_B *904:A 4.20711e-05
100 *1059:D *945:C 0.000558507
101 *1059:RESET_B *93:108 0
102 *1063:D *93:20 7.49594e-05
103 *1068:D *945:C 0.000672873
104 *1075:D *927:B 4.63425e-05
105 *1081:RESET_B *945:C 0.00174808
106 *51:26 *927:B 0.000831966
107 *62:26 *93:20 0.00023316
108 *62:26 *93:30 0.000113353
109 *87:65 *93:40 0.000663986
110 *87:65 *93:50 0.000774784
*RES
1 *902:X *93:10 6.98 
2 *93:10 *93:20 19.9339 
3 *93:20 *93:30 5.2997 
4 *93:30 *93:40 25.57 
5 *93:40 *93:50 22.69 
6 *93:50 *945:C 40.17 
7 *93:50 *944:A2 1.6 
8 *93:40 *927:B 19.31 
9 *93:30 *924:A_N 1.6 
10 *93:20 *93:108 15.0125 
11 *93:108 *93:110 2.0175 
12 *93:110 *904:A 31.3525 
13 *93:110 *932:C 9.3525 
14 *93:108 *928:B 4.05 
15 *93:10 *931:A2 11.38 
*END

*D_NET *94 0.0161737
*CONN
*I *904:B I *D sky130_fd_sc_hd__and2_1
*I *944:A3 I *D sky130_fd_sc_hd__a31o_1
*I *945:D I *D sky130_fd_sc_hd__and4_2
*I *903:X O *D sky130_fd_sc_hd__and4_1
*CAP
1 *904:B 0.000830573
2 *944:A3 0.000567805
3 *945:D 0.000600083
4 *903:X 0
5 *94:10 0.00326381
6 *94:4 0.0029265
7 *904:B *903:C 0.000485022
8 *904:B *922:A 0.000117265
9 *904:B *979:A 0
10 *904:B *979:B 0.000197862
11 *904:B *1040:A 0.000438153
12 *904:B *95:21 0
13 *904:B *126:47 7.91885e-05
14 *904:B *173:12 0
15 *904:B *215:40 4.7878e-05
16 *904:B *220:10 0.000406959
17 *944:A3 *908:B 0.000206824
18 *944:A3 *944:A1 1.85674e-05
19 *944:A3 *944:B1 0.000488278
20 *944:A3 *992:A 2.94708e-05
21 *944:A3 *194:49 0.000357476
22 *945:D *945:A 0.000417476
23 *945:D *945:B 6.07254e-05
24 *945:D *166:69 7.23602e-05
25 *94:10 *903:C 0.000120923
26 *94:10 *939:A1 0
27 *94:10 *980:C 0.00162383
28 *94:10 *985:A 0
29 *94:10 *986:C 2.97004e-06
30 *94:10 *1034:A 0.000279334
31 *94:10 *166:69 0
32 *94:10 *219:16 0.000154501
33 *945:C *944:A3 2.49909e-05
34 *1069:RESET_B *904:B 7.0772e-05
35 *22:16 *944:A3 0.000861323
36 *22:16 *94:10 0.000176273
37 *62:26 *944:A3 0.001139
38 *62:26 *945:D 3.67779e-05
39 *62:26 *94:10 7.06865e-05
*RES
1 *903:X *94:4 1.6 
2 *94:4 *94:10 29.435 
3 *94:10 *945:D 15.76 
4 *94:10 *944:A3 25.17 
5 *94:4 *904:B 21.56 
*END

*D_NET *95 0.0205405
*CONN
*I *941:B I *D sky130_fd_sc_hd__nand2_1
*I *909:A2 I *D sky130_fd_sc_hd__o31a_1
*I *940:B I *D sky130_fd_sc_hd__or2_1
*I *939:C1 I *D sky130_fd_sc_hd__a211oi_1
*I *904:X O *D sky130_fd_sc_hd__and2_1
*CAP
1 *941:B 0.00186301
2 *909:A2 0.00102624
3 *940:B 0
4 *939:C1 0.000274803
5 *904:X 0.000231265
6 *95:32 0.00303138
7 *95:21 0.000949507
8 *95:8 0.00131344
9 *909:A2 *905:B 1.23763e-05
10 *909:A2 *1032:A 1.91597e-05
11 *909:A2 *97:14 0.000486103
12 *909:A2 *176:82 0.000137039
13 *909:A2 *176:89 0.000297916
14 *909:A2 *176:118 0.00022786
15 *909:A2 *193:30 0.000311079
16 *939:C1 *921:B 6.8333e-05
17 *939:C1 *922:A 0.000935188
18 *939:C1 *979:B 0.000426571
19 *939:C1 *173:12 6.8333e-05
20 *939:C1 *188:63 9.09748e-05
21 *941:B *899:A1 9.14049e-05
22 *941:B *905:B 0.000162083
23 *941:B *941:A 0.00116956
24 *941:B *942:C 0.000636334
25 *941:B *951:C 9.14049e-05
26 *941:B *957:A 4.26938e-06
27 *941:B *983:D 0.00041284
28 *941:B *176:118 0.000422281
29 *941:B *178:14 0.000131881
30 *941:B *193:22 4.99619e-05
31 *941:B *193:30 4.82919e-05
32 *95:8 *979:B 0.00034438
33 *95:21 *957:A 0.000288476
34 *95:21 *982:B1 0.000347997
35 *95:21 *103:66 0.000596806
36 *95:21 *173:12 0.000168448
37 *95:21 *197:41 6.65792e-05
38 *95:32 *957:A 0.000349427
39 *95:32 *178:14 1.23082e-05
40 *894:B *941:B 0.000449095
41 *899:B1 *941:B 4.87117e-05
42 *904:B *95:21 0
43 *1069:RESET_B *909:A2 0.000573288
44 *1072:RESET_B *909:A2 1.16578e-05
45 *1072:RESET_B *941:B 1.46828e-05
46 *20:22 *95:21 0.000360134
47 *20:50 *95:21 0.000800839
48 *20:82 *95:21 0.000184409
49 *20:129 *95:21 0.00010397
50 *20:129 *95:32 0.000307171
51 *84:39 *941:B 0.000521242
*RES
1 *904:X *95:8 6.81 
2 *95:8 *939:C1 13.2 
3 *95:8 *95:21 21.525 
4 *95:21 *940:B 3.6 
5 *95:21 *95:32 6.44 
6 *95:32 *909:A2 20.74 
7 *95:32 *941:B 42.615 
*END

*D_NET *96 0.00969101
*CONN
*I *970:C I *D sky130_fd_sc_hd__and4_1
*I *906:D I *D sky130_fd_sc_hd__or4_1
*I *905:X O *D sky130_fd_sc_hd__and4_1
*CAP
1 *970:C 0.000737485
2 *906:D 0.000553499
3 *905:X 0.00047891
4 *96:12 0.00176989
5 *906:D *903:C 0
6 *906:D *906:C 1.88602e-05
7 *906:D *959:B 1.4088e-05
8 *906:D *1015:A1 0
9 *906:D *189:63 0.00068819
10 *906:D *192:57 0.000402015
11 *970:C *960:C 3.04788e-05
12 *970:C *970:D 9.04339e-05
13 *970:C *1001:A 0.000880892
14 *970:C *154:26 0.000157365
15 *970:C *167:20 4.66108e-05
16 *970:C *185:27 0.00164878
17 *970:C *189:63 1.71207e-05
18 *970:C *192:57 8.53113e-06
19 *96:12 *941:A 0.000178617
20 *96:12 *185:27 7.83179e-05
21 *96:12 *185:43 2.49909e-05
22 *96:12 *192:57 0.000119103
23 *96:12 *193:22 0.000118081
24 *96:12 *203:48 0.000119242
25 *932:C *906:D 0.000166307
26 *93:108 *906:D 0.000439177
27 *93:108 *970:C 0.000741583
28 *93:110 *906:D 0.000162443
*RES
1 *905:X *96:12 11.07 
2 *96:12 *906:D 17.22 
3 *96:12 *970:C 27.33 
*END

*D_NET *97 0.00852864
*CONN
*I *909:A3 I *D sky130_fd_sc_hd__o31a_1
*I *906:X O *D sky130_fd_sc_hd__or4_1
*CAP
1 *909:A3 0
2 *906:X 0.00238523
3 *97:14 0.00238523
4 *97:14 *906:C 8.52845e-05
5 *97:14 *959:A 3.59784e-05
6 *97:14 *980:B 0.000158072
7 *97:14 *981:B1 8.23457e-05
8 *97:14 *995:A 0.000122331
9 *97:14 *995:B 1.91597e-05
10 *97:14 *1032:A 0.00029854
11 *97:14 *148:10 0.00014817
12 *97:14 *148:41 0.00106041
13 *97:14 *164:12 0.000159156
14 *97:14 *176:6 0.000121815
15 *97:14 *176:61 0
16 *97:14 *176:82 0.000196669
17 *97:14 *177:12 0.000188887
18 *97:14 *177:22 4.82329e-05
19 *97:14 *190:20 0.00031635
20 *97:14 *201:40 0.00010978
21 *97:14 *215:22 0
22 *909:A2 *97:14 0.000486103
23 *1062:D *97:14 0.000120896
*RES
1 *906:X *97:14 49.25 
2 *97:14 *909:A3 1.6 
*END

*D_NET *98 0.00415102
*CONN
*I *908:C I *D sky130_fd_sc_hd__and4b_1
*I *907:X O *D sky130_fd_sc_hd__and4b_1
*CAP
1 *908:C 0.000980252
2 *907:X 0.000980252
3 *908:C *911:A2 0.000720848
4 *908:C *984:B 0.000345347
5 *908:C *994:A1 0
6 *908:C *1025:A 9.50299e-05
7 *908:C *154:44 0.000486898
8 *908:C *165:12 0.000496881
9 *933:A *908:C 1.87841e-05
10 *1059:RESET_B *908:C 0
11 *1077:RESET_B *908:C 2.67275e-05
*RES
1 *907:X *908:C 28.995 
*END

*D_NET *99 0.00497473
*CONN
*I *909:B1 I *D sky130_fd_sc_hd__o31a_1
*I *908:X O *D sky130_fd_sc_hd__and4b_1
*CAP
1 *909:B1 0.00115926
2 *908:X 0.00115926
3 *909:B1 *908:A_N 0.000567845
4 *909:B1 *916:B 0.00041078
5 *909:B1 *948:A 0.000200699
6 *909:B1 *955:A 0.000155928
7 *909:B1 *1032:A 4.66108e-05
8 *909:B1 *212:37 2.75145e-05
9 *1064:RESET_B *909:B1 0.000582696
10 *35:10 *909:B1 8.44359e-05
11 *48:22 *909:B1 0.000579709
*RES
1 *908:X *909:B1 33.16 
*END

*D_NET *100 0.00595591
*CONN
*I *911:A2 I *D sky130_fd_sc_hd__o211ai_4
*I *909:X O *D sky130_fd_sc_hd__o31a_1
*CAP
1 *911:A2 0.0016148
2 *909:X 0.0016148
3 *911:A2 *933:C 0
4 *911:A2 *985:A 0.000365327
5 *911:A2 *994:A1 0
6 *911:A2 *1032:A 0.000314114
7 *911:A2 *155:18 0.000170197
8 *911:A2 *194:49 3.69978e-05
9 *911:A2 *212:29 2.54522e-05
10 *908:C *911:A2 0.000720848
11 *32:16 *911:A2 0.00109337
*RES
1 *909:X *911:A2 35.835 
*END

*D_NET *101 0.0145824
*CONN
*I *998:A I *D sky130_fd_sc_hd__and2_1
*I *911:B1 I *D sky130_fd_sc_hd__o211ai_4
*I *910:X O *D sky130_fd_sc_hd__and4_2
*CAP
1 *998:A 0
2 *911:B1 0.000179049
3 *910:X 0.0030825
4 *101:18 0.00326155
5 *911:B1 *911:C1 6.65725e-05
6 *911:B1 *1032:A 6.54361e-06
7 *911:B1 *102:14 0.000198051
8 *101:18 *892:B 4.12303e-05
9 *101:18 *902:D 0.000181798
10 *101:18 *907:A_N 0.00124226
11 *101:18 *907:C 7.8632e-06
12 *101:18 *933:B 0.000542242
13 *101:18 *933:C 9.66862e-06
14 *101:18 *934:A 4.63082e-05
15 *101:18 *942:C 0.000524005
16 *101:18 *966:A 8.82125e-05
17 *101:18 *983:C 8.40213e-05
18 *101:18 *993:B 4.03821e-05
19 *101:18 *994:A1 0.00059431
20 *101:18 *102:14 0.000169303
21 *101:18 *102:51 0.000162055
22 *101:18 *154:26 0.000263595
23 *101:18 *195:12 0.000180568
24 *101:18 *197:41 0.000219788
25 *101:18 *199:41 0.000156232
26 *911:A1 *911:B1 0.000563589
27 *911:A1 *101:18 1.92979e-05
28 *1011:A *101:18 0.000284321
29 *1065:D *101:18 0.00128438
30 *1075:RESET_B *101:18 1.91843e-05
31 *35:10 *911:B1 0.000153775
32 *35:10 *101:18 1.15399e-05
33 *86:43 *101:18 0.00079508
34 *87:44 *101:18 0.000103103
*RES
1 *910:X *101:18 17.2377 
2 *101:18 *911:B1 9.75 
3 *101:18 *998:A 3.6 
*END

*D_NET *102 0.0213756
*CONN
*I *223:DIODE I *D sky130_fd_sc_hd__diode_2
*I *1008:B1 I *D sky130_fd_sc_hd__a2bb2o_1
*I *912:A2 I *D sky130_fd_sc_hd__a21bo_4
*I *911:Y O *D sky130_fd_sc_hd__o211ai_4
*CAP
1 *223:DIODE 0
2 *1008:B1 0.000133346
3 *912:A2 0.000331633
4 *911:Y 0.000249103
5 *102:51 0.00415323
6 *102:14 0.00460062
7 *912:A2 *154:44 0.000109489
8 *912:A2 *175:80 4.71037e-05
9 *912:A2 *215:18 0.000234356
10 *1008:B1 *920:A1 8.52883e-05
11 *1008:B1 *920:B1 4.21579e-05
12 *102:14 *911:C1 0.000236355
13 *102:14 *933:B 0.000107198
14 *102:14 *933:C 0.000565855
15 *102:14 *1032:A 8.41703e-06
16 *102:51 *907:A_N 8.31038e-05
17 *102:51 *907:C 0.00112931
18 *102:51 *920:A1 0.0001871
19 *102:51 *920:A2 0.000455904
20 *102:51 *933:B 0.000314456
21 *102:51 *933:C 0.000783621
22 *102:51 *934:A 0
23 *102:51 *942:C 0
24 *102:51 *951:C 0.000125344
25 *102:51 *952:A 1.89066e-05
26 *102:51 *966:A 0.000467943
27 *102:51 *1054:CLK 0
28 *102:51 *177:80 1.79008e-05
29 *102:51 *210:34 1.01505e-05
30 *102:51 *213:14 0.00224765
31 an[2] *102:51 0
32 an[7] *102:51 1.88656e-05
33 *911:A1 *102:14 2.05056e-05
34 *911:B1 *102:14 0.000198051
35 *1011:A *102:51 0.00117747
36 *1065:RESET_B *912:A2 1.83847e-05
37 *1077:D *102:51 0.00144692
38 *21:16 *102:51 0.00104789
39 *35:10 *102:14 9.47962e-06
40 *85:16 *102:51 3.20802e-05
41 *86:43 *102:51 0.000329011
42 *101:18 *102:14 0.000169303
43 *101:18 *102:51 0.000162055
*RES
1 *911:Y *102:14 7.36123 
2 *102:14 *912:A2 10.4225 
3 *102:14 *102:51 43.0984 
4 *102:51 *1008:B1 3.445 
5 *102:51 *223:DIODE 1.6 
*END

*D_NET *103 0.0311354
*CONN
*I *942:B I *D sky130_fd_sc_hd__and3_1
*I *924:B I *D sky130_fd_sc_hd__and3b_1
*I *990:A I *D sky130_fd_sc_hd__and3_1
*I *917:B I *D sky130_fd_sc_hd__and3_1
*I *913:A I *D sky130_fd_sc_hd__clkinv_4
*I *921:B I *D sky130_fd_sc_hd__and3_1
*I *1006:A I *D sky130_fd_sc_hd__and3_1
*I *975:A I *D sky130_fd_sc_hd__and3_1
*I *986:A I *D sky130_fd_sc_hd__and3_1
*I *926:A I *D sky130_fd_sc_hd__buf_2
*I *912:X O *D sky130_fd_sc_hd__a21bo_4
*CAP
1 *942:B 0.000467035
2 *924:B 3.41697e-05
3 *990:A 0.000799087
4 *917:B 0.00030504
5 *913:A 0
6 *921:B 0.00097206
7 *1006:A 0
8 *975:A 0.000386578
9 *986:A 0
10 *926:A 0.000172018
11 *912:X 0.000118062
12 *103:113 0.00125964
13 *103:76 0.000189296
14 *103:74 0.000649112
15 *103:68 0.000573047
16 *103:66 0.000855014
17 *103:52 0.00175797
18 *103:38 0.0022966
19 *103:24 0.00193636
20 *103:14 0.00162791
21 *917:B *903:C 0.000376291
22 *917:B *932:B 6.62456e-05
23 *917:B *957:A 1.79536e-05
24 *917:B *964:A 3.08721e-05
25 *917:B *1005:A 0.00049085
26 *917:B *214:43 3.09774e-05
27 *917:B *214:62 4.41506e-05
28 *921:B *921:C 4.17708e-06
29 *921:B *922:A 0.00102039
30 *921:B *979:B 0.000223255
31 *921:B *982:B1 0.000109009
32 *921:B *1100:A 0.000108608
33 *921:B *173:12 1.86475e-05
34 *926:A *922:A 4.23414e-05
35 *926:A *112:14 9.20404e-05
36 *926:A *148:10 0
37 *926:A *199:18 8.39868e-06
38 *942:B *893:A 0.000230009
39 *942:B *934:A 9.83692e-05
40 *942:B *953:A2 1.67537e-05
41 *942:B *994:A1 6.72143e-05
42 *942:B *118:38 0.000194898
43 *942:B *183:24 3.1562e-06
44 *942:B *183:28 6.72143e-05
45 *975:A *975:C 9.30366e-05
46 *975:A *980:B 7.01359e-05
47 *975:A *995:A 0.00012923
48 *975:A *995:B 2.78367e-05
49 *975:A *1006:C 0.000235851
50 *975:A *148:10 0
51 *975:A *148:41 0
52 *975:A *162:34 0.00012923
53 *975:A *164:12 0
54 *975:A *195:73 1.41928e-05
55 *975:A *199:18 0.000119043
56 *975:A *219:16 1.0522e-05
57 *990:A *912:B1_N 0.000175629
58 *990:A *929:C 1.79536e-05
59 *990:A *990:C 0.000143718
60 *990:A *1080:CLK 5.78755e-05
61 *990:A *181:92 0.000109322
62 *990:A *189:63 5.92535e-05
63 *990:A *191:43 5.8023e-05
64 *990:A *205:12 5.30924e-05
65 *990:A *209:18 0.000192968
66 *103:14 *891:A 1.15125e-05
67 *103:14 *912:B1_N 0.000115708
68 *103:24 *898:A1 3.93467e-05
69 *103:24 *912:B1_N 0.000627786
70 *103:24 *937:A 0.000813101
71 *103:24 *953:A2 2.99518e-06
72 *103:24 *976:A 0.000411108
73 *103:24 *112:75 4.6075e-05
74 *103:24 *158:20 0.00028769
75 *103:24 *188:22 0.000298898
76 *103:24 *188:102 0.000311305
77 *103:24 *214:72 6.33103e-05
78 *103:38 *912:B1_N 2.93621e-05
79 *103:38 *158:20 0.000711917
80 *103:38 *181:92 2.05258e-05
81 *103:38 *185:43 3.43604e-05
82 *103:38 *189:63 0
83 *103:38 *203:48 3.79532e-05
84 *103:52 *929:C 0
85 *103:52 *946:A 0
86 *103:52 *1015:A1 0
87 *103:52 *183:81 0.000169215
88 *103:52 *185:43 9.58021e-05
89 *103:52 *203:48 0
90 *103:52 *206:18 0.000111147
91 *103:52 *208:93 1.0397e-05
92 *103:66 *964:A 0.000256215
93 *103:66 *982:B1 0.00059846
94 *103:66 *1000:A2 2.01565e-05
95 *103:66 *1005:A 0.000340394
96 *103:66 *112:137 0.000110671
97 *103:68 *1000:A2 6.33103e-05
98 *103:68 *112:137 0.000107205
99 *103:74 *918:A 0.000360544
100 *103:74 *1000:A2 0.000735911
101 *103:74 *112:137 0.00032198
102 *103:76 *918:A 8.52883e-05
103 *103:76 *1000:A2 8.41307e-05
104 *103:113 *1006:B 0.000637173
105 *103:113 *1006:C 0.000616277
106 *103:113 *1010:A 1.03503e-05
107 *890:B *103:38 1.9417e-05
108 *891:B *942:B 0.000108669
109 *904:A *103:52 0.000141702
110 *914:B *103:52 5.45625e-05
111 *939:C1 *921:B 6.8333e-05
112 *1058:RESET_B *103:66 0.000317329
113 *1059:D *103:38 2.22315e-05
114 *1059:RESET_B *103:52 2.91892e-05
115 *1061:D *975:A 0
116 *1066:RESET_B *990:A 0.000227865
117 *1070:D *103:24 0.00102679
118 *1070:D *103:38 0
119 *1078:D *926:A 4.89295e-05
120 *1084:D *942:B 1.2578e-05
121 *1084:D *103:14 1.77665e-05
122 *1084:D *103:24 1.85996e-05
123 *20:8 *103:66 8.35068e-05
124 *80:18 *103:38 2.11722e-05
125 *84:39 *103:38 0
126 *93:30 *924:B 4.77757e-05
127 *93:30 *103:38 9.22294e-06
128 *93:40 *103:24 0.000207643
129 *93:110 *103:52 0
130 *95:21 *103:66 0.000596806
*RES
1 *912:X *103:14 6 
2 *103:14 *103:24 32.35 
3 *103:24 *103:38 15.5111 
4 *103:38 *103:52 13.4575 
5 *103:52 *103:66 12.2614 
6 *103:66 *103:68 1.14 
7 *103:68 *103:74 8.16 
8 *103:74 *103:76 0.795 
9 *103:76 *926:A 8.705 
10 *103:76 *986:A 1.6 
11 *103:74 *975:A 13.235 
12 *103:68 *103:113 12.01 
13 *103:113 *1006:A 1.6 
14 *103:113 *921:B 19.625 
15 *103:66 *913:A 1.6 
16 *103:52 *917:B 6.28297 
17 *103:38 *990:A 17.1276 
18 *103:24 *924:B 4.05 
19 *103:14 *942:B 14.695 
*END

*D_NET *104 0.00310229
*CONN
*I *917:A I *D sky130_fd_sc_hd__and3_1
*I *915:Y O *D sky130_fd_sc_hd__nand2_1
*CAP
1 *917:A 0.000656542
2 *915:Y 0.000656542
3 *917:A *932:B 0.000300423
4 *917:A *957:A 0.000167589
5 *917:A *1080:CLK 0.000460173
6 *917:A *181:92 0.000198677
7 *917:A *189:63 0.000275789
8 *917:A *191:43 0.000386554
*RES
1 *915:Y *917:A 21.225 
*END

*D_NET *105 0.013062
*CONN
*I *917:C I *D sky130_fd_sc_hd__and3_1
*I *916:X O *D sky130_fd_sc_hd__or2_1
*CAP
1 *917:C 0.00398466
2 *916:X 0.00398466
3 *917:C *896:A1 2.67222e-05
4 *917:C *952:A 0.000685151
5 *917:C *957:A 0.000952834
6 *917:C *1005:A 0.000938584
7 *904:A *917:C 3.91191e-05
8 *932:C *917:C 0.000174407
9 *1068:D *917:C 0.000848511
10 *1081:RESET_B *917:C 0.00120955
11 *22:16 *917:C 0
12 *32:16 *917:C 0
13 *91:27 *917:C 0.000217815
*RES
1 *916:X *917:C 31.644 
*END

*D_NET *106 0.00919139
*CONN
*I *918:A I *D sky130_fd_sc_hd__clkbuf_1
*I *917:X O *D sky130_fd_sc_hd__and3_1
*CAP
1 *918:A 0.00117391
2 *917:X 0.00117391
3 *918:A *896:A1 0.000158937
4 *918:A *896:B1 0.000559539
5 *918:A *922:A 0.00133225
6 *918:A *981:B1 1.7635e-05
7 *918:A *997:C 0.0011124
8 *918:A *1000:A2 0.000127132
9 *918:A *112:14 0.000156557
10 *918:A *112:18 5.62109e-05
11 *918:A *112:137 8.40269e-05
12 *918:A *166:69 0.000178725
13 *918:A *184:66 6.1807e-05
14 *918:A *214:43 0.000200325
15 *897:B *918:A 0.00119639
16 *1062:D *918:A 0.000319959
17 *1068:RESET_B *918:A 0.000646041
18 *1073:D *918:A 5.83121e-06
19 *1073:RESET_B *918:A 0.000183968
20 *103:74 *918:A 0.000360544
21 *103:76 *918:A 8.52883e-05
*RES
1 *917:X *918:A 47.175 
*END

*D_NET *107 0.00258874
*CONN
*I *921:A I *D sky130_fd_sc_hd__and3_1
*I *919:Y O *D sky130_fd_sc_hd__nand3_1
*CAP
1 *921:A 0.000947117
2 *919:Y 0.000947117
3 *921:A *919:A 3.64998e-06
4 *921:A *919:B 3.14403e-05
5 *921:A *921:C 5.66461e-05
6 *921:A *1068:CLK 0.000385464
7 *921:A *1097:A 0.000197862
8 *921:A *1099:A 1.94483e-05
9 *921:A *119:47 0
10 *1075:RESET_B *921:A 0
*RES
1 *919:Y *921:A 19.995 
*END

*D_NET *108 0.00620134
*CONN
*I *921:C I *D sky130_fd_sc_hd__and3_1
*I *920:X O *D sky130_fd_sc_hd__a21o_1
*CAP
1 *921:C 0.0016929
2 *920:X 0.0016929
3 *921:C *935:B 0.000310877
4 *921:C *1002:A 0.000256507
5 *921:C *1002:B 0.000122202
6 *921:C *1009:C1 0.00055089
7 *921:C *1068:CLK 0.000364225
8 *921:C *1095:A 0
9 *921:C *1100:A 0.000152106
10 *921:C *168:26 0
11 *921:C *177:117 0.000244356
12 *921:C *192:18 2.23253e-05
13 *921:C *207:18 0.000118534
14 *921:A *921:C 5.66461e-05
15 *921:B *921:C 4.17708e-06
16 *1057:D *921:C 0.000490824
17 *1068:D *921:C 0
18 *1075:RESET_B *921:C 7.30505e-05
19 *1079:RESET_B *921:C 4.88147e-05
*RES
1 *920:X *921:C 45.88 
*END

*D_NET *109 0.00948077
*CONN
*I *922:A I *D sky130_fd_sc_hd__clkbuf_1
*I *921:X O *D sky130_fd_sc_hd__and3_1
*CAP
1 *922:A 0.00127232
2 *921:X 0.00127232
3 *922:A *979:B 0.000110544
4 *922:A *982:A1 0
5 *922:A *986:B 4.43603e-05
6 *922:A *987:A 0.000855435
7 *922:A *997:C 0.00012406
8 *922:A *1006:B 8.41384e-05
9 *922:A *1014:A2 1.12261e-05
10 *922:A *112:14 0.000137233
11 *922:A *133:34 7.38136e-05
12 *922:A *173:18 2.68824e-05
13 *922:A *184:33 0
14 *922:A *184:66 0
15 *922:A *188:63 0.0001382
16 *922:A *199:18 0.00060494
17 *904:A *922:A 0.000198987
18 *904:B *922:A 0.000117265
19 *918:A *922:A 0.00133225
20 *921:B *922:A 0.00102039
21 *926:A *922:A 4.23414e-05
22 *939:C1 *922:A 0.000935188
23 *997:A *922:A 0.000197855
24 *1056:D *922:A 0.000179586
25 *1074:RESET_B *922:A 9.87949e-06
26 *20:22 *922:A 0.000532604
27 *32:16 *922:A 0.00015896
*RES
1 *921:X *922:A 49.755 
*END

*D_NET *110 0.00634852
*CONN
*I *924:C I *D sky130_fd_sc_hd__and3b_1
*I *923:X O *D sky130_fd_sc_hd__a31o_1
*CAP
1 *924:C 0.00141481
2 *923:X 0.00141481
3 *924:C *902:A 0.000865996
4 *924:C *925:A 8.82827e-05
5 *924:C *930:A 0.00019637
6 *924:C *962:A 0.000229021
7 *924:C *962:B 4.6483e-05
8 *924:C *963:C 0.00055321
9 *924:C *983:D 0.000535044
10 *924:C *989:B 7.37942e-05
11 *924:C *999:B 0.000377408
12 *924:C *137:33 1.53053e-05
13 *924:C *191:22 0.000108886
14 *924:C *198:62 0.000194295
15 *894:B *924:C 4.5783e-05
16 *1080:RESET_B *924:C 0.00017016
17 *80:18 *924:C 1.88656e-05
*RES
1 *923:X *924:C 39.405 
*END

*D_NET *111 0.00773427
*CONN
*I *925:A I *D sky130_fd_sc_hd__buf_1
*I *924:X O *D sky130_fd_sc_hd__and3b_1
*CAP
1 *925:A 0.00224835
2 *924:X 0.00224835
3 *925:A *934:A 0.000290282
4 *925:A *942:C 0
5 *925:A *983:C 1.05476e-05
6 *925:A *999:B 0.00137841
7 *925:A *1011:B 0.000652053
8 *925:A *1042:A 0
9 *925:A *1096:A 0.000610923
10 *925:A *154:26 1.08758e-05
11 *925:A *210:34 0.000143793
12 *924:C *925:A 8.82827e-05
13 *41:12 *925:A 5.23992e-05
*RES
1 *924:X *925:A 42.45 
*END

*D_NET *112 0.0338375
*CONN
*I *1009:B1 I *D sky130_fd_sc_hd__o211a_1
*I *963:A I *D sky130_fd_sc_hd__and3_1
*I *1000:C1 I *D sky130_fd_sc_hd__o211a_1
*I *981:C1 I *D sky130_fd_sc_hd__o221a_1
*I *936:A I *D sky130_fd_sc_hd__and3_1
*I *929:A I *D sky130_fd_sc_hd__and3_1
*I *951:A I *D sky130_fd_sc_hd__and3_1
*I *967:A I *D sky130_fd_sc_hd__and3_1
*I *956:A I *D sky130_fd_sc_hd__and3_1
*I *947:A I *D sky130_fd_sc_hd__and3_1
*I *926:X O *D sky130_fd_sc_hd__buf_2
*CAP
1 *1009:B1 1.22417e-05
2 *963:A 0.000254877
3 *1000:C1 0.000155009
4 *981:C1 0.000613122
5 *936:A 0
6 *929:A 0.000349185
7 *951:A 0
8 *967:A 0.000516367
9 *956:A 1.65033e-05
10 *947:A 0.00161305
11 *926:X 0.000261555
12 *112:141 0.000877314
13 *112:137 0.00110991
14 *112:117 0.00128968
15 *112:96 0.00144367
16 *112:75 0.000948719
17 *112:52 0.00126154
18 *112:39 0.000410472
19 *112:18 0.00231463
20 *112:14 0.00141379
21 *929:A *158:20 0.000556064
22 *929:A *208:34 5.53376e-05
23 *947:A *889:C 0.000695684
24 *947:A *947:B 1.89858e-05
25 *947:A *947:C 0.00126643
26 *947:A *948:A 0.000362871
27 *956:A *956:C 4.66108e-05
28 *956:A *972:A1 2.49909e-05
29 *963:A *963:C 3.59531e-06
30 *963:A *991:A 0.000149951
31 *963:A *1000:A1 8.40269e-05
32 *963:A *1000:A2 8.90672e-05
33 *967:A *907:B 0.000446491
34 *967:A *968:A 2.51519e-05
35 *967:A *972:A2 0.000506587
36 *967:A *142:18 8.27338e-05
37 *967:A *146:28 0.000228235
38 *981:C1 *910:A 0.000178276
39 *981:C1 *910:C 0.000157503
40 *981:C1 *966:A 0
41 *981:C1 *981:B1 4.55864e-06
42 *981:C1 *981:B2 1.44356e-05
43 *981:C1 *983:B 0
44 *981:C1 *1030:A 0.000153976
45 *1000:C1 *991:A 0.000124904
46 *1000:C1 *1000:A1 0.000139566
47 *1000:C1 *1000:A2 1.01152e-05
48 *1000:C1 *1000:B1 4.87465e-06
49 *1000:C1 *119:47 7.25089e-06
50 *1000:C1 *166:29 2.54431e-05
51 *1000:C1 *166:69 5.0751e-05
52 *1000:C1 *175:153 0.000219818
53 *1009:B1 *1009:A2 3.116e-05
54 *1009:B1 *1009:C1 5.4155e-06
55 *112:18 *980:C 0.000226903
56 *112:18 *981:B1 1.7635e-05
57 *112:18 *1035:A 0.000211004
58 *112:18 *166:69 0.000198067
59 *112:18 *168:26 0.00022534
60 *112:18 *204:43 7.68851e-05
61 *112:18 *214:43 0.000275186
62 *112:39 *1035:A 0.000271531
63 *112:39 *162:34 0.000188756
64 *112:52 *956:C 5.28255e-05
65 *112:52 *972:A1 6.00111e-05
66 *112:52 *159:24 0.000120708
67 *112:52 *196:18 0.000344483
68 *112:75 *898:A1 7.96104e-06
69 *112:75 *943:A 0.000260612
70 *112:75 *951:C 8.85605e-05
71 *112:75 *952:A 0.000101807
72 *112:75 *159:24 0.000187982
73 *112:75 *196:10 0.000450273
74 *112:75 *196:18 0.00018799
75 *112:96 *951:C 0.000483875
76 *112:96 *972:A2 8.03774e-05
77 *112:96 *972:B1 9.14098e-06
78 *112:96 *993:C 5.82744e-05
79 *112:96 *146:138 4.66474e-05
80 *112:96 *197:41 4.12831e-05
81 *112:117 *936:C 1.70906e-05
82 *112:117 *937:A 0.000737017
83 *112:117 *951:C 0.000501655
84 *112:117 *182:32 0.000446813
85 *112:117 *182:36 3.73962e-05
86 *112:137 *967:B 5.84759e-05
87 *112:137 *1000:A2 0.000110781
88 *112:137 *1009:C1 4.60123e-05
89 *112:141 *900:A 3.73067e-05
90 *112:141 *967:B 0.000305749
91 *112:141 *1009:A2 9.54772e-05
92 *112:141 *1009:C1 1.05984e-05
93 *918:A *112:14 0.000156557
94 *918:A *112:18 5.62109e-05
95 *918:A *112:137 8.40269e-05
96 *922:A *112:14 0.000137233
97 *926:A *112:14 9.20404e-05
98 *1060:RESET_B *981:C1 0.000192506
99 *1062:D *112:18 0.000879492
100 *1062:D *112:39 0.000485286
101 *1064:RESET_B *947:A 3.86781e-05
102 *1065:D *929:A 0.000490823
103 *1070:RESET_B *963:A 0.000515712
104 *1071:RESET_B *981:C1 3.37388e-05
105 *1072:D *929:A 9.20337e-05
106 *1077:D *112:96 0.000135566
107 *1077:D *112:117 0.000267053
108 *1080:D *963:A 0.000119866
109 *1080:D *112:141 0.000812449
110 *1084:D *112:75 0.000192125
111 *1084:D *112:96 0.000195854
112 *1084:RESET_B *929:A 4.16253e-05
113 *1084:RESET_B *947:A 8.23457e-05
114 *20:8 *112:137 3.96653e-05
115 *22:16 *947:A 0.000124139
116 *37:12 *947:A 0.000103752
117 *85:16 *112:117 0
118 *93:20 *981:C1 0.000571851
119 *103:24 *112:75 4.6075e-05
120 *103:66 *112:137 0.000110671
121 *103:68 *112:137 0.000107205
122 *103:74 *112:137 0.00032198
*RES
1 *926:X *112:14 10.295 
2 *112:14 *112:18 17.15 
3 *112:18 *947:A 35.395 
4 *112:18 *112:39 7.97 
5 *112:39 *956:A 2.05 
6 *112:39 *112:52 7.325 
7 *112:52 *967:A 14.4 
8 *112:52 *112:75 18.27 
9 *112:75 *951:A 1.6 
10 *112:75 *112:96 7.29817 
11 *112:96 *929:A 13.2575 
12 *112:96 *112:117 12.7362 
13 *112:117 *936:A 1.6 
14 *112:117 *981:C1 19.28 
15 *112:14 *112:137 11.49 
16 *112:137 *112:141 9.78 
17 *112:141 *1000:C1 9.935 
18 *112:141 *963:A 12.965 
19 *112:137 *1009:B1 1.96 
*END

*D_NET *113 0.00391043
*CONN
*I *929:B I *D sky130_fd_sc_hd__and3_1
*I *927:Y O *D sky130_fd_sc_hd__nand2_1
*CAP
1 *929:B 0.00110728
2 *927:Y 0.00110728
3 *929:B *927:A 0.00159725
4 *911:A1 *929:B 9.86129e-05
*RES
1 *927:Y *929:B 18.83 
*END

*D_NET *114 0.00830074
*CONN
*I *929:C I *D sky130_fd_sc_hd__and3_1
*I *928:X O *D sky130_fd_sc_hd__or2_1
*CAP
1 *929:C 0.00215072
2 *928:X 0.00215072
3 *929:C *895:A1 0.000679218
4 *929:C *937:A 0.000289221
5 *929:C *967:B 0.000188488
6 *929:C *1001:A 0.00015529
7 *929:C *1093:A 0.000161467
8 *929:C *146:28 0.000214765
9 *929:C *192:57 0.000252145
10 *929:C *208:34 0.000439979
11 *891:B *929:C 6.83447e-05
12 *895:A2 *929:C 0.000102831
13 *990:A *929:C 1.79536e-05
14 *1063:D *929:C 0.000121274
15 *1071:RESET_B *929:C 7.00115e-05
16 *1084:RESET_B *929:C 0.000240342
17 *80:18 *929:C 0.000123645
18 *85:16 *929:C 0.000162621
19 *93:108 *929:C 0.000711707
20 *103:52 *929:C 0
*RES
1 *928:X *929:C 41.8005 
*END

*D_NET *115 0.00743207
*CONN
*I *930:A I *D sky130_fd_sc_hd__clkbuf_1
*I *929:X O *D sky130_fd_sc_hd__and3_1
*CAP
1 *930:A 0.00173926
2 *929:X 0.00173926
3 *930:A *966:A 0.000261495
4 *930:A *966:B 0.000320687
5 *930:A *981:A1 0.000101392
6 *930:A *981:B2 3.28518e-05
7 *930:A *999:B 0.000109377
8 *930:A *1000:A1 0.000255972
9 *930:A *1030:A 4.66108e-05
10 *930:A *1038:A 0.000133627
11 *930:A *117:47 8.63886e-05
12 *930:A *176:141 0.000607657
13 *924:C *930:A 0.00019637
14 *1060:RESET_B *930:A 0.000392262
15 *1065:D *930:A 2.46089e-05
16 *1066:RESET_B *930:A 8.66853e-05
17 *1071:RESET_B *930:A 1.29317e-05
18 *49:24 *930:A 0.000257632
19 *62:26 *930:A 1.2782e-05
20 *71:22 *930:A 0.000986959
21 *93:20 *930:A 2.72637e-05
*RES
1 *929:X *930:A 45.7561 
*END

*D_NET *116 0.0218226
*CONN
*I *933:B I *D sky130_fd_sc_hd__nor3_1
*I *931:Y O *D sky130_fd_sc_hd__a21oi_1
*CAP
1 *933:B 0.00947185
2 *931:Y 0.00947185
3 *933:B *910:C 0.000104508
4 *933:B *931:B1 6.69608e-06
5 *933:B *933:C 0.000231442
6 *933:B *934:A 0.000154871
7 *933:B *942:C 0.000275945
8 *933:B *981:B1 0.0001465
9 *933:B *983:A 0
10 *933:B *994:A1 0.000157177
11 *933:B *195:22 0.000104508
12 *933:B *213:14 0
13 an[2] *933:B 3.96676e-05
14 *931:A2 *933:B 9.76407e-06
15 *1011:A *933:B 0.000314456
16 *1065:D *933:B 0.000133333
17 *1081:RESET_B *933:B 0.000236193
18 *101:18 *933:B 0.000542242
19 *102:14 *933:B 0.000107198
20 *102:51 *933:B 0.000314456
*RES
1 *931:Y *933:B 16.1307 
*END

*D_NET *117 0.0270743
*CONN
*I *934:B I *D sky130_fd_sc_hd__or2_1
*I *933:C I *D sky130_fd_sc_hd__nor3_1
*I *935:B I *D sky130_fd_sc_hd__nand2_1
*I *932:X O *D sky130_fd_sc_hd__and3_1
*CAP
1 *934:B 0.000888191
2 *933:C 0.00164962
3 *935:B 0.000497162
4 *932:X 0.000589433
5 *117:47 0.00723901
6 *117:10 0.0057878
7 *933:C *952:A 0.000231104
8 *933:C *994:A1 0
9 *934:B *934:A 4.55864e-06
10 *934:B *977:A 4.55763e-05
11 *934:B *200:35 0.000148266
12 *935:B *935:A 0
13 *935:B *1009:C1 0.000656851
14 *935:B *119:6 4.89395e-05
15 *117:10 *1008:A1_N 0.000109386
16 *117:10 *1008:A2_N 0.000301905
17 *117:10 *1048:A 0.000119756
18 *117:10 *119:47 2.49909e-05
19 *117:47 *892:B 2.37183e-05
20 *117:47 *898:A1 6.52219e-05
21 *117:47 *942:C 7.23533e-05
22 *117:47 *951:B 1.94736e-05
23 *117:47 *951:C 2.16038e-05
24 *117:47 *952:A 9.02766e-05
25 *117:47 *971:A 1.1392e-05
26 *117:47 *988:B 7.48122e-05
27 *117:47 *989:A 0.00048142
28 *117:47 *989:B 0.000353035
29 *117:47 *1009:C1 6.31803e-05
30 *117:47 *1011:B 0.000113124
31 *117:47 *1096:A 0.00048142
32 *117:47 *126:97 0.000612236
33 *117:47 *146:12 3.65112e-06
34 *117:47 *148:41 8.24893e-06
35 *117:47 *196:89 3.82493e-05
36 *117:47 *202:24 0.000321149
37 *894:B *117:47 0.00046088
38 *911:A2 *933:C 0
39 *921:C *935:B 0.000310877
40 *927:B *934:B 5.68523e-06
41 *930:A *117:47 8.63886e-05
42 *933:A *933:C 8.35106e-05
43 *933:B *933:C 0.000231442
44 *1008:B2 *117:10 4.47125e-05
45 *1055:RESET_B *933:C 0.000293726
46 *1059:RESET_B *933:C 0.000147765
47 *1063:D *117:47 0.000459214
48 *1068:D *935:B 2.06983e-05
49 *1080:D *935:B 0.00070301
50 *1080:D *117:47 0.000668836
51 *1080:RESET_B *117:10 9.43463e-05
52 *1080:RESET_B *117:47 0.000295782
53 *1084:RESET_B *117:47 7.55395e-05
54 *62:26 *117:47 0.000535668
55 *93:20 *117:47 0
56 *101:18 *933:C 9.66862e-06
57 *102:14 *933:C 0.000565855
58 *102:51 *933:C 0.000783621
*RES
1 *932:X *117:10 14.07 
2 *117:10 *935:B 18.435 
3 *117:10 *117:47 43.6334 
4 *117:47 *933:C 10.7206 
5 *117:47 *934:B 6.23217 
*END

*D_NET *118 0.00807905
*CONN
*I *936:B I *D sky130_fd_sc_hd__and3_1
*I *934:X O *D sky130_fd_sc_hd__or2_1
*CAP
1 *936:B 9.69181e-05
2 *934:X 0.00224506
3 *118:38 0.00234198
4 *936:B *931:B1 0
5 *936:B *142:18 0.000168466
6 *936:B *176:135 6.32638e-05
7 *118:38 *912:B1_N 0
8 *118:38 *916:B 3.75937e-05
9 *118:38 *942:A 8.76679e-05
10 *118:38 *953:A2 0.000164561
11 *118:38 *953:B1 7.39008e-05
12 *118:38 *956:B 0.000192128
13 *118:38 *970:A 1.2973e-05
14 *118:38 *154:44 0.000158066
15 *118:38 *162:34 3.1388e-05
16 *118:38 *183:28 0.000189068
17 *118:38 *187:45 0.000106829
18 *891:B *118:38 4.11718e-05
19 *942:B *118:38 0.000194898
20 *1054:D *118:38 0.00155741
21 *1077:D *118:38 3.64998e-06
22 *1084:D *118:38 0.00025761
23 *20:175 *118:38 5.44496e-05
*RES
1 *934:X *118:38 49.83 
2 *118:38 *936:B 5.745 
*END

*D_NET *119 0.0156369
*CONN
*I *936:C I *D sky130_fd_sc_hd__and3_1
*I *939:A2 I *D sky130_fd_sc_hd__a211oi_1
*I *935:Y O *D sky130_fd_sc_hd__nand2_1
*CAP
1 *936:C 1.35516e-05
2 *939:A2 0.00133315
3 *935:Y 0.000430865
4 *119:47 0.00149836
5 *119:6 0.00324883
6 *939:A2 *957:A 0.000102819
7 *939:A2 *979:A 1.7635e-05
8 *939:A2 *981:A1 0.000186202
9 *939:A2 *1007:A 7.48122e-05
10 *939:A2 *1100:A 4.44256e-05
11 *939:A2 *188:63 8.09455e-05
12 *939:A2 *188:71 0.000159177
13 *939:A2 *192:18 0.000121036
14 *119:6 *957:A 7.11365e-05
15 *119:6 *192:18 0.00114951
16 *119:47 *963:B 0.000694344
17 *119:47 *963:C 0.000417403
18 *119:47 *990:C 0.000170436
19 *119:47 *991:A 0.000791833
20 *119:47 *1039:A 0.000173699
21 *119:47 *1068:CLK 1.64141e-05
22 *119:47 *142:18 0.000708552
23 *119:47 *175:153 3.02087e-05
24 *119:47 *176:135 0.000878362
25 *119:47 *181:18 4.14009e-05
26 *119:47 *181:20 0.000195094
27 *119:47 *192:57 0.000964907
28 *119:47 *214:62 0.000140081
29 *904:A *939:A2 1.7635e-05
30 *921:A *119:47 0
31 *935:B *119:6 4.89395e-05
32 *1000:C1 *119:47 7.25089e-06
33 *1065:D *119:47 1.97429e-05
34 *1068:D *939:A2 0.000324409
35 *1068:RESET_B *939:A2 0.000593001
36 *1069:D *939:A2 0.000766844
37 *1069:RESET_B *939:A2 4.1235e-05
38 *1070:RESET_B *119:47 0
39 *1077:D *119:47 2.05571e-05
40 *112:117 *936:C 1.70906e-05
41 *117:10 *119:47 2.49909e-05
*RES
1 *935:Y *119:6 12.745 
2 *119:6 *939:A2 17.2071 
3 *119:6 *119:47 48.105 
4 *119:47 *936:C 3.765 
*END

*D_NET *120 0.00526283
*CONN
*I *937:A I *D sky130_fd_sc_hd__clkbuf_1
*I *936:X O *D sky130_fd_sc_hd__and3_1
*CAP
1 *937:A 0.00122422
2 *936:X 0.00122422
3 *937:A *898:A1 0.000156771
4 *937:A *972:A2 0.000153816
5 *937:A *183:61 1.91597e-05
6 *937:A *192:86 8.23457e-05
7 *937:A *208:34 0.000240451
8 *929:C *937:A 0.000289221
9 *1084:D *937:A 0.000129921
10 *1084:RESET_B *937:A 3.69766e-05
11 *93:40 *937:A 0.000155601
12 *103:24 *937:A 0.000813101
13 *112:117 *937:A 0.000737017
*RES
1 *936:X *937:A 29.025 
*END

*D_NET *121 0.0102784
*CONN
*I *939:A1 I *D sky130_fd_sc_hd__a211oi_1
*I *938:Y O *D sky130_fd_sc_hd__inv_2
*CAP
1 *939:A1 0.00189504
2 *938:Y 0.00189504
3 *939:A1 *985:A 0.001176
4 *939:A1 *986:C 0
5 *939:A1 *1100:A 0.00283843
6 *939:A1 *126:47 1.7635e-05
7 *939:A1 *175:16 0.000110629
8 *939:A1 *184:16 0.000150359
9 *939:A1 *184:33 0.000551723
10 *1062:RESET_B *939:A1 0.000126737
11 *1068:D *939:A1 0.000145731
12 *32:16 *939:A1 0.00137106
13 *94:10 *939:A1 0
*RES
1 *938:Y *939:A1 36.8619 
*END

*D_NET *122 0.00686813
*CONN
*I *942:A I *D sky130_fd_sc_hd__and3_1
*I *940:X O *D sky130_fd_sc_hd__or2_1
*CAP
1 *942:A 0.00133623
2 *940:X 0.00133623
3 *942:A *891:A 0.000456912
4 *942:A *903:A 7.63717e-05
5 *942:A *942:C 5.14691e-05
6 *942:A *951:C 9.96673e-05
7 *942:A *972:A2 0
8 *942:A *972:B1 0
9 *942:A *993:B 9.58678e-06
10 *942:A *993:C 3.25289e-05
11 *942:A *994:A1 3.72899e-05
12 *942:A *994:B1 2.85364e-05
13 *942:A *1012:B 8.33066e-06
14 *942:A *154:26 0.000161529
15 *942:A *159:24 0
16 *942:A *162:8 0.000231326
17 *942:A *162:34 2.8531e-05
18 *942:A *183:28 3.63701e-06
19 *942:A *183:61 0.000122262
20 *942:A *196:89 2.91772e-05
21 *942:A *202:24 0.000300988
22 *942:A *208:34 5.4419e-05
23 *942:A *211:10 0.000522522
24 *1054:RESET_B *942:A 3.01014e-05
25 *1066:D *942:A 0.000151292
26 *1067:D *942:A 0.000229118
27 *1084:RESET_B *942:A 0.00026397
28 *20:129 *942:A 0.000902783
29 *20:175 *942:A 0
30 *93:40 *942:A 0.00027566
31 *118:38 *942:A 8.76679e-05
*RES
1 *940:X *942:A 43.765 
*END

*D_NET *123 0.0130922
*CONN
*I *942:C I *D sky130_fd_sc_hd__and3_1
*I *941:Y O *D sky130_fd_sc_hd__nand2_1
*CAP
1 *942:C 0.00293472
2 *941:Y 0.00293472
3 *942:C *934:A 0.00301517
4 *942:C *983:C 4.61701e-06
5 *942:C *989:B 0.00014874
6 *942:C *993:B 4.03791e-05
7 *942:C *1096:A 0
8 *942:C *154:26 0.000129801
9 *942:C *154:44 8.23457e-05
10 *942:C *162:8 0.000145634
11 *942:C *199:41 0.0004709
12 *942:C *210:34 0
13 *894:B *942:C 4.26733e-05
14 *925:A *942:C 0
15 *933:B *942:C 0.000275945
16 *941:B *942:C 0.000636334
17 *942:A *942:C 5.14691e-05
18 *1063:D *942:C 0.00120263
19 *1083:RESET_B *942:C 3.92756e-05
20 *86:43 *942:C 0.000340448
21 *101:18 *942:C 0.000524005
22 *102:51 *942:C 0
23 *117:47 *942:C 7.23533e-05
*RES
1 *941:Y *942:C 41.8626 
*END

*D_NET *124 0.00541717
*CONN
*I *943:A I *D sky130_fd_sc_hd__clkbuf_1
*I *942:X O *D sky130_fd_sc_hd__and3_1
*CAP
1 *943:A 0.000887747
2 *942:X 0.000887747
3 *943:A *898:A1 1.93765e-05
4 *943:A *898:A2 6.90254e-05
5 *943:A *956:B 7.85453e-05
6 *943:A *989:B 0.000327658
7 *943:A *154:44 0.000105383
8 *943:A *155:39 0.000735172
9 *943:A *159:24 2.43422e-05
10 *943:A *162:34 0.000242688
11 *943:A *183:28 0.000666657
12 *943:A *191:69 0.00015755
13 *943:A *194:31 0.00050102
14 *943:A *196:10 0.000157748
15 *943:A *196:18 0.000183707
16 *943:A *201:40 4.16809e-05
17 *1062:D *943:A 5.16418e-05
18 *87:44 *943:A 1.88656e-05
19 *112:75 *943:A 0.000260612
*RES
1 *942:X *943:A 33.225 
*END

*D_NET *125 0.00292533
*CONN
*I *947:B I *D sky130_fd_sc_hd__and3_1
*I *944:X O *D sky130_fd_sc_hd__a31o_1
*CAP
1 *947:B 0.000806417
2 *944:X 0.000806417
3 *947:B *948:A 0.000232403
4 *947:B *985:A 0
5 *947:B *994:A1 0.00104546
6 *947:B *155:18 0
7 *945:C *947:B 1.56428e-05
8 *947:A *947:B 1.89858e-05
*RES
1 *944:X *947:B 22.86 
*END

*D_NET *126 0.0348551
*CONN
*I *949:B I *D sky130_fd_sc_hd__or2_1
*I *953:A2 I *D sky130_fd_sc_hd__a21o_1
*I *970:D I *D sky130_fd_sc_hd__and4_1
*I *946:A I *D sky130_fd_sc_hd__inv_2
*I *950:B I *D sky130_fd_sc_hd__nand2_1
*I *954:C I *D sky130_fd_sc_hd__and3_2
*I *945:X O *D sky130_fd_sc_hd__and4_2
*CAP
1 *949:B 0.000180795
2 *953:A2 0.00115149
3 *970:D 9.02587e-05
4 *946:A 0.000284135
5 *950:B 0.00108072
6 *954:C 0.000133706
7 *945:X 0.00234481
8 *126:97 0.00293317
9 *126:72 0.00277939
10 *126:51 0.00225839
11 *126:47 0.0019807
12 *126:16 0.00390458
13 *946:A *912:B1_N 3.58223e-05
14 *946:A *203:48 1.76792e-05
15 *949:B *979:A 4.89295e-05
16 *949:B *173:60 9.39388e-06
17 *949:B *193:22 1.7635e-05
18 *950:B *903:C 0.000156765
19 *950:B *950:A 0.00103481
20 *950:B *1009:A1 1.84761e-05
21 *950:B *192:57 0.000153816
22 *950:B *204:43 0.000251039
23 *950:B *219:16 0.000242137
24 *953:A2 *891:A 4.8854e-05
25 *953:A2 *892:C 0.000535294
26 *953:A2 *893:A 0.00054669
27 *953:A2 *970:A 0.000231377
28 *953:A2 *971:A 4.77719e-05
29 *953:A2 *1001:A 4.72463e-05
30 *953:A2 *154:26 0.000187433
31 *953:A2 *183:24 0.00019391
32 *953:A2 *185:27 1.51915e-05
33 *953:A2 *188:102 4.93142e-05
34 *953:A2 *189:33 0
35 *953:A2 *199:41 4.82919e-05
36 *953:A2 *199:60 0.000217878
37 *953:A2 *208:34 0.000112143
38 *954:C *954:A 0
39 *954:C *982:B1 0.000161105
40 *126:16 *982:A1 6.90876e-05
41 *126:16 *982:A4 5.05437e-05
42 *126:16 *986:B 0.000620285
43 *126:16 *1100:A 0.00018691
44 *126:16 *133:14 8.53113e-06
45 *126:47 *954:A 0
46 *126:47 *982:A1 4.12775e-05
47 *126:47 *982:A2 0
48 *126:47 *1100:A 0.000248194
49 *126:47 *173:12 0
50 *126:47 *173:18 0.000170812
51 *126:47 *173:60 5.8403e-05
52 *126:47 *175:16 1.79483e-05
53 *126:47 *188:63 0.00105997
54 *126:51 *981:A1 0.000586191
55 *126:72 *981:A1 0.00112237
56 *126:97 *981:A1 0.00143047
57 *126:97 *1001:A 0.000589068
58 *126:97 *189:63 0
59 *126:97 *202:24 0.000151428
60 *891:B *953:A2 0.000907932
61 *893:B *953:A2 9.22294e-06
62 *904:A *950:B 1.89738e-05
63 *904:B *126:47 7.91885e-05
64 *914:B *946:A 3.60024e-06
65 *939:A1 *126:47 1.7635e-05
66 *942:B *953:A2 1.67537e-05
67 *970:C *970:D 9.04339e-05
68 *1061:D *126:47 0.000132568
69 *1068:D *949:B 0.00012714
70 *1068:D *126:16 0
71 *1068:D *126:47 0.000151211
72 *1069:RESET_B *949:B 4.77757e-05
73 *1074:RESET_B *949:B 6.52988e-05
74 *1074:RESET_B *126:47 7.50069e-05
75 *1079:RESET_B *950:B 0.000284717
76 *1079:RESET_B *126:47 0.00031118
77 *1083:RESET_B *953:A2 0.00011381
78 *1083:RESET_B *126:51 0.000200555
79 *1083:RESET_B *126:72 0.000421242
80 *1083:RESET_B *126:97 0.000793458
81 *86:6 *953:A2 4.77719e-05
82 *86:43 *953:A2 0.000151987
83 *91:27 *946:A 4.52302e-05
84 *103:24 *953:A2 2.99518e-06
85 *103:52 *946:A 0
86 *117:47 *126:97 0.000612236
87 *118:38 *953:A2 0.000164561
*RES
1 *945:X *126:16 38.5825 
2 *126:16 *954:C 5.8275 
3 *126:16 *126:47 21.8553 
4 *126:47 *126:51 1.65773 
5 *126:51 *950:B 21.2075 
6 *126:51 *126:72 2.27747 
7 *126:72 *946:A 5.44597 
8 *126:72 *126:97 12.1662 
9 *126:97 *970:D 4.74 
10 *126:97 *953:A2 38.45 
11 *126:47 *949:B 6.04443 
*END

*D_NET *127 0.00929017
*CONN
*I *947:C I *D sky130_fd_sc_hd__and3_1
*I *946:Y O *D sky130_fd_sc_hd__inv_2
*CAP
1 *947:C 0.00291265
2 *946:Y 0.00291265
3 *947:C *183:77 0.000206162
4 *947:C *203:48 7.01359e-05
5 *914:B *947:C 0.000451565
6 *947:A *947:C 0.00126643
7 *1056:D *947:C 0.00147058
*RES
1 *946:Y *947:C 44.3025 
*END

*D_NET *128 0.00568659
*CONN
*I *948:A I *D sky130_fd_sc_hd__buf_1
*I *947:X O *D sky130_fd_sc_hd__and3_1
*CAP
1 *948:A 0.00131945
2 *947:X 0.00131945
3 *948:A *889:C 0.000215785
4 *948:A *907:B 0.000270093
5 *948:A *916:B 8.65961e-05
6 *948:A *968:A 0.000197818
7 *948:A *146:72 0.00102708
8 *948:A *175:63 8.77251e-05
9 *948:A *175:80 0.000266765
10 *948:A *177:22 1.91824e-05
11 *909:B1 *948:A 0.000200699
12 *947:A *948:A 0.000362871
13 *947:B *948:A 0.000232403
14 *51:26 *948:A 7.27003e-05
15 *93:50 *948:A 7.9642e-06
*RES
1 *947:X *948:A 37.515 
*END

*D_NET *129 0.0116124
*CONN
*I *951:B I *D sky130_fd_sc_hd__and3_1
*I *949:X O *D sky130_fd_sc_hd__or2_1
*CAP
1 *951:B 0.00292339
2 *949:X 0.00292339
3 *951:B *981:B1 0.000907375
4 *951:B *991:A 0.000339423
5 *951:B *993:C 0.000134948
6 *951:B *1007:A 0.000168786
7 *951:B *159:24 0.000243962
8 *951:B *173:60 0.0001288
9 *951:B *193:22 2.18287e-05
10 *951:B *199:18 0.00261853
11 *951:B *202:24 3.63701e-06
12 *1016:A *951:B 0.000932566
13 *1054:RESET_B *951:B 6.01002e-05
14 *1069:RESET_B *951:B 0.000175929
15 *1077:D *951:B 1.02455e-05
16 *117:47 *951:B 1.94736e-05
*RES
1 *949:X *951:B 22.1683 
*END

*D_NET *130 0.013384
*CONN
*I *951:C I *D sky130_fd_sc_hd__and3_1
*I *950:Y O *D sky130_fd_sc_hd__nand2_1
*CAP
1 *951:C 0.00260771
2 *950:Y 0.00260771
3 *951:C *899:A1 2.24421e-05
4 *951:C *919:B 0.000848401
5 *951:C *971:A 0.00103842
6 *951:C *972:A2 7.09064e-05
7 *951:C *993:C 9.51996e-05
8 *951:C *1000:A1 0
9 *951:C *177:61 0
10 *951:C *177:80 0
11 *951:C *198:43 0.00136544
12 *951:C *198:45 0.000331759
13 *951:C *202:24 0.0021152
14 *951:C *219:16 0.00013106
15 *941:B *951:C 9.14049e-05
16 *942:A *951:C 9.96673e-05
17 *1058:D *951:C 0.000270799
18 *1075:RESET_B *951:C 0.000279639
19 *1077:D *951:C 0.000187199
20 *102:51 *951:C 0.000125344
21 *112:75 *951:C 8.85605e-05
22 *112:96 *951:C 0.000483875
23 *112:117 *951:C 0.000501655
24 *117:47 *951:C 2.16038e-05
*RES
1 *950:Y *951:C 48.1621 
*END

*D_NET *131 0.013934
*CONN
*I *952:A I *D sky130_fd_sc_hd__buf_1
*I *951:X O *D sky130_fd_sc_hd__and3_1
*CAP
1 *952:A 0.00407518
2 *951:X 0.00407518
3 *952:A *958:A 0.000106095
4 *952:A *964:A 0.000112776
5 *952:A *995:B 0.000274061
6 *952:A *997:C 3.32909e-05
7 *952:A *1005:A 0.000339124
8 *952:A *159:24 0.000101807
9 *917:C *952:A 0.000685151
10 *933:C *952:A 0.000231104
11 *997:A *952:A 0.000109845
12 *1055:RESET_B *952:A 0.000583488
13 *1062:RESET_B *952:A 0.00028583
14 *1075:RESET_B *952:A 0
15 *1077:D *952:A 0.000107628
16 *1078:RESET_B *952:A 0.000371779
17 *1079:D *952:A 0.000226648
18 *1081:RESET_B *952:A 0
19 *1086:A *952:A 0.000730963
20 *22:16 *952:A 0
21 *35:10 *952:A 0.00127306
22 *62:26 *952:A 0
23 *102:51 *952:A 1.89066e-05
24 *112:75 *952:A 0.000101807
25 *117:47 *952:A 9.02766e-05
*RES
1 *951:X *952:A 37.8258 
*END

*D_NET *132 0.00424784
*CONN
*I *956:B I *D sky130_fd_sc_hd__and3_1
*I *953:X O *D sky130_fd_sc_hd__a21o_1
*CAP
1 *956:B 0.000846677
2 *953:X 0.000846677
3 *956:B *898:A2 3.72081e-05
4 *956:B *162:8 4.7003e-05
5 *956:B *162:34 0.000152455
6 *956:B *183:28 0.000245902
7 *956:B *201:40 0.000536831
8 *898:B1 *956:B 0.000110326
9 *943:A *956:B 7.85453e-05
10 *1061:D *956:B 0.000288615
11 *51:26 *956:B 5.27486e-05
12 *84:39 *956:B 0.000153816
13 *87:44 *956:B 0.000658911
14 *118:38 *956:B 0.000192128
*RES
1 *953:X *956:B 27.945 
*END

*D_NET *133 0.0207204
*CONN
*I *955:A I *D sky130_fd_sc_hd__inv_2
*I *958:B I *D sky130_fd_sc_hd__nor2_1
*I *959:B I *D sky130_fd_sc_hd__and2_1
*I *965:A3 I *D sky130_fd_sc_hd__a31o_1
*I *954:X O *D sky130_fd_sc_hd__and3_2
*CAP
1 *955:A 0.000818839
2 *958:B 9.05144e-05
3 *959:B 0.000848954
4 *965:A3 0
5 *954:X 0.000331708
6 *133:60 0.00184963
7 *133:34 0.00298426
8 *133:14 0.0034073
9 *955:A *944:A1 0.000505773
10 *955:A *960:B 0.000587251
11 *955:A *1032:A 0.00121715
12 *955:A *1055:CLK 0.000416466
13 *955:A *198:33 0.000237139
14 *955:A *212:25 0.000814951
15 *958:B *960:B 8.247e-05
16 *959:B *903:C 0
17 *959:B *906:C 4.06846e-05
18 *959:B *954:B 0.000118044
19 *959:B *959:A 0.000173103
20 *959:B *965:A2 0.000211918
21 *959:B *967:B 2.0458e-05
22 *959:B *1015:A1 0
23 *959:B *137:8 6.3124e-06
24 *959:B *189:63 1.13346e-05
25 *959:B *190:20 0.000153816
26 *133:14 *986:B 4.94457e-05
27 *133:14 *1074:CLK 9.02098e-05
28 *133:14 *179:35 6.67851e-05
29 *133:34 *954:B 9.17423e-05
30 *133:34 *965:A2 8.7152e-06
31 *133:34 *967:B 1.56296e-05
32 *133:34 *1015:A2 6.9442e-05
33 *133:34 *1050:A 2.71803e-05
34 *133:34 *173:60 2.44338e-05
35 *133:34 *175:16 7.76661e-05
36 *133:34 *175:153 4.30228e-05
37 *133:34 *215:32 5.88779e-05
38 *133:34 *215:40 0.00162191
39 *133:60 *960:B 2.49909e-05
40 *133:60 *1004:B1 0.000371637
41 *133:60 *1073:CLK 0.000232214
42 *133:60 *176:14 0.000153004
43 *133:60 *179:35 9.387e-06
44 *133:60 *188:22 0.000800607
45 *904:A *133:34 0.000234021
46 *906:D *959:B 1.4088e-05
47 *909:B1 *955:A 0.000155928
48 *922:A *133:34 7.38136e-05
49 *1016:A *133:34 0.000118081
50 *1017:B1 *955:A 1.79536e-05
51 *1073:D *133:60 0.000413464
52 *1074:D *133:14 0.000275146
53 *1074:D *133:60 0.000157714
54 *1075:RESET_B *955:A 0.000164905
55 *1079:D *133:60 4.23862e-05
56 *1082:RESET_B *133:34 4.91081e-05
57 *35:10 *955:A 0.000222551
58 *87:65 *955:A 7.70952e-06
59 *126:16 *133:14 8.53113e-06
*RES
1 *954:X *133:14 10.155 
2 *133:14 *133:34 39.41 
3 *133:34 *965:A3 3.6 
4 *133:34 *959:B 16.545 
5 *133:14 *133:60 23.24 
6 *133:60 *958:B 3.085 
7 *133:60 *955:A 34.64 
*END

*D_NET *134 0.00517866
*CONN
*I *956:C I *D sky130_fd_sc_hd__and3_1
*I *955:Y O *D sky130_fd_sc_hd__inv_2
*CAP
1 *956:C 0.00140388
2 *955:Y 0.00140388
3 *956:C *907:D 0.00086107
4 *956:C *972:A1 0.000302773
5 *956:C *1055:CLK 0.000192489
6 *956:C *198:33 0.000106327
7 *956:C *203:60 3.69766e-05
8 *956:A *956:C 4.66108e-05
9 *1064:RESET_B *956:C 0.000765758
10 *84:39 *956:C 6.07575e-06
11 *112:52 *956:C 5.28255e-05
*RES
1 *955:Y *956:C 32.625 
*END

*D_NET *135 0.0105512
*CONN
*I *957:A I *D sky130_fd_sc_hd__buf_1
*I *956:X O *D sky130_fd_sc_hd__and3_1
*CAP
1 *957:A 0.00235504
2 *956:X 0.00235504
3 *957:A *905:B 1.15688e-05
4 *957:A *906:A 0.000196335
5 *957:A *932:B 2.87901e-05
6 *957:A *965:A1 9.387e-06
7 *957:A *1005:A 3.95127e-05
8 *957:A *167:43 7.93454e-06
9 *957:A *188:71 0.000649678
10 *957:A *189:63 7.74001e-05
11 *957:A *191:43 0.000971221
12 *957:A *192:18 7.51223e-05
13 *957:A *192:57 0.000115279
14 *957:A *197:41 0.000763912
15 *917:A *957:A 0.000167589
16 *917:B *957:A 1.79536e-05
17 *917:C *957:A 0.000952834
18 *939:A2 *957:A 0.000102819
19 *941:B *957:A 4.26938e-06
20 *1072:RESET_B *957:A 9.30717e-05
21 *84:39 *957:A 0.000626183
22 *91:27 *957:A 0.00022122
23 *95:21 *957:A 0.000288476
24 *95:32 *957:A 0.000349427
25 *119:6 *957:A 7.11365e-05
*RES
1 *956:X *957:A 45.2625 
*END

*D_NET *136 0.00799348
*CONN
*I *960:B I *D sky130_fd_sc_hd__nor3_1
*I *958:Y O *D sky130_fd_sc_hd__nor2_1
*CAP
1 *960:B 0.00204299
2 *958:Y 0.00204299
3 *960:B *898:A1 9.77048e-06
4 *960:B *898:A2 3.91176e-06
5 *960:B *976:A 0.000134029
6 *960:B *1032:A 0.000828187
7 *960:B *1046:A 5.83121e-06
8 *960:B *1061:CLK 0.000196742
9 *960:B *1092:A 2.49909e-05
10 *960:B *146:72 0.000198651
11 *960:B *177:22 8.33691e-05
12 *960:B *180:10 0.00026476
13 *960:B *188:22 0.000271074
14 *898:B1 *960:B 1.41095e-05
15 *899:B1 *960:B 0.000184914
16 *955:A *960:B 0.000587251
17 *958:B *960:B 8.247e-05
18 *1003:A *960:B 0.000487696
19 *87:65 *960:B 0.000504745
20 *133:60 *960:B 2.49909e-05
*RES
1 *958:Y *960:B 47.385 
*END

*D_NET *137 0.0207725
*CONN
*I *966:C I *D sky130_fd_sc_hd__nand3_1
*I *960:C I *D sky130_fd_sc_hd__nor3_1
*I *962:B I *D sky130_fd_sc_hd__nand2_1
*I *961:B I *D sky130_fd_sc_hd__or2_1
*I *959:X O *D sky130_fd_sc_hd__and2_1
*CAP
1 *966:C 0.000800388
2 *960:C 0.000567569
3 *962:B 2.92638e-05
4 *961:B 0.00172248
5 *959:X 0.000153646
6 *137:33 0.000643875
7 *137:31 0.00161132
8 *137:8 0.00264001
9 *960:C *898:A1 0.000695984
10 *960:C *1001:A 0.000162195
11 *960:C *1090:A 0.00041304
12 *960:C *189:63 0
13 *960:C *208:34 1.46744e-05
14 *961:B *1037:A 0.00209258
15 *961:B *168:26 0.000241651
16 *961:B *181:20 7.06865e-05
17 *961:B *191:43 7.23602e-05
18 *961:B *204:43 8.01849e-05
19 *962:B *999:B 2.05665e-05
20 *966:C *966:B 4.66108e-05
21 *966:C *167:20 0.000937967
22 *966:C *182:72 0.000113344
23 *966:C *182:81 6.93342e-05
24 *966:C *182:85 0.000214831
25 *966:C *185:27 0.0010989
26 *966:C *189:33 0
27 *137:8 *959:A 2.65814e-06
28 *137:31 *899:A2 0.000502489
29 *137:31 *903:C 5.84554e-05
30 *137:31 *931:B1 0.000422231
31 *137:31 *962:A 7.23635e-05
32 *137:31 *999:B 0.00015639
33 *137:31 *181:18 0.000110584
34 *137:31 *181:20 0.000238825
35 *137:31 *191:22 0.000109652
36 *137:31 *191:43 0.00069433
37 *137:31 *209:24 0.000673693
38 *137:31 *214:72 0.000668763
39 *137:33 *962:A 0.000156658
40 *137:33 *999:B 0.000191335
41 *895:B1 *966:C 2.20732e-05
42 *899:B1 *960:C 5.51874e-05
43 *924:C *962:B 4.6483e-05
44 *924:C *137:33 1.53053e-05
45 *959:B *137:8 6.3124e-06
46 *970:C *960:C 3.04788e-05
47 *1061:D *961:B 0.000399043
48 *1066:D *960:C 0.000143608
49 *1067:D *960:C 0.00135897
50 *1083:D *966:C 0.000115187
51 *93:108 *960:C 7.96104e-06
*RES
1 *959:X *137:8 5.085 
2 *137:8 *961:B 33.19 
3 *137:8 *137:31 26.795 
4 *137:31 *137:33 1.83 
5 *137:33 *962:B 2.3875 
6 *137:33 *960:C 22.9775 
7 *137:31 *966:C 26.105 
*END

*D_NET *138 0.00786415
*CONN
*I *963:B I *D sky130_fd_sc_hd__and3_1
*I *961:X O *D sky130_fd_sc_hd__or2_1
*CAP
1 *963:B 0.00188648
2 *961:X 0.00188648
3 *963:B *961:A 0.000452153
4 *963:B *1011:B 3.85753e-05
5 *963:B *166:69 0.000277301
6 *963:B *175:153 0.000415169
7 *963:B *181:18 4.76303e-05
8 *963:B *181:20 0.000652973
9 *963:B *191:43 0.000217876
10 *963:B *193:22 1.07684e-05
11 *963:B *203:48 0.000122801
12 *904:A *963:B 0
13 *1057:D *963:B 0.000191335
14 *1078:D *963:B 0.000970267
15 *119:47 *963:B 0.000694344
*RES
1 *961:X *963:B 44.62 
*END

*D_NET *139 0.00494436
*CONN
*I *963:C I *D sky130_fd_sc_hd__and3_1
*I *962:Y O *D sky130_fd_sc_hd__nand2_1
*CAP
1 *963:C 0.00118865
2 *962:Y 0.00118865
3 *963:C *990:B 6.87462e-05
4 *963:C *991:A 0.000830973
5 *963:C *142:18 7.06865e-05
6 *963:C *177:57 8.91775e-05
7 *963:C *194:31 0.000135531
8 *963:C *207:18 1.79408e-05
9 *924:C *963:C 0.00055321
10 *963:A *963:C 3.59531e-06
11 *1060:RESET_B *963:C 0
12 *1070:RESET_B *963:C 0.000379791
13 *119:47 *963:C 0.000417403
*RES
1 *962:Y *963:C 32.895 
*END

*D_NET *140 0.0135651
*CONN
*I *964:A I *D sky130_fd_sc_hd__clkbuf_1
*I *963:X O *D sky130_fd_sc_hd__and3_1
*CAP
1 *964:A 0.00397491
2 *963:X 0.00397491
3 *964:A *903:C 0.000267369
4 *964:A *907:B 4.12094e-05
5 *964:A *991:A 8.00033e-05
6 *964:A *167:43 2.88345e-05
7 *964:A *192:57 8.00033e-05
8 *912:A1 *964:A 4.0031e-05
9 *917:B *964:A 3.08721e-05
10 *952:A *964:A 0.000112776
11 *1058:RESET_B *964:A 0.000489861
12 *1075:RESET_B *964:A 0.00297066
13 *1079:D *964:A 0.00121749
14 *62:26 *964:A 0
15 *103:66 *964:A 0.000256215
*RES
1 *963:X *964:A 20.1242 
*END

*D_NET *141 0.00743099
*CONN
*I *967:B I *D sky130_fd_sc_hd__and3_1
*I *965:X O *D sky130_fd_sc_hd__a31o_1
*CAP
1 *967:B 0.00155805
2 *965:X 0.00155805
3 *967:B *968:A 5.83121e-06
4 *967:B *1015:A1 0.000232649
5 *967:B *1050:A 7.27402e-06
6 *967:B *146:28 8.72204e-05
7 *967:B *158:20 2.60397e-05
8 *967:B *193:22 0.000591942
9 *967:B *203:48 0.000624649
10 *929:C *967:B 0.000188488
11 *959:B *967:B 2.0458e-05
12 *1015:B1 *967:B 1.00941e-05
13 *1069:RESET_B *967:B 0.00160112
14 *1084:RESET_B *967:B 8.88236e-05
15 *85:16 *967:B 0.000450447
16 *112:137 *967:B 5.84759e-05
17 *112:141 *967:B 0.000305749
18 *133:34 *967:B 1.56296e-05
*RES
1 *965:X *967:B 46.525 
*END

*D_NET *142 0.0100701
*CONN
*I *967:C I *D sky130_fd_sc_hd__and3_1
*I *972:A2 I *D sky130_fd_sc_hd__a211oi_1
*I *966:Y O *D sky130_fd_sc_hd__nand3_1
*CAP
1 *967:C 0
2 *972:A2 0.00110881
3 *966:Y 0.00162367
4 *142:18 0.00273248
5 *972:A2 *972:A1 0.000163058
6 *972:A2 *146:138 2.18924e-05
7 *972:A2 *186:18 0.00031477
8 *972:A2 *196:89 5.63183e-05
9 *972:A2 *197:41 0.000238598
10 *142:18 *931:B1 0
11 *142:18 *966:B 0.00110929
12 *142:18 *146:28 0.000349416
13 *142:18 *176:135 3.09456e-05
14 *142:18 *176:141 1.81185e-05
15 *142:18 *182:85 0.000120655
16 *895:B1 *142:18 0.000120655
17 *936:B *142:18 0.000168466
18 *937:A *972:A2 0.000153816
19 *942:A *972:A2 0
20 *951:C *972:A2 7.09064e-05
21 *963:C *142:18 7.06865e-05
22 *967:A *972:A2 0.000506587
23 *967:A *142:18 8.27338e-05
24 *1060:RESET_B *142:18 0
25 *1071:D *142:18 0
26 *1084:D *972:A2 2.01504e-05
27 *20:152 *972:A2 0.000170901
28 *62:26 *142:18 2.61222e-05
29 *93:40 *972:A2 2.0851e-06
30 *112:96 *972:A2 8.03774e-05
31 *119:47 *142:18 0.000708552
*RES
1 *966:Y *142:18 35.3675 
2 *142:18 *972:A2 28.2225 
3 *142:18 *967:C 1.6 
*END

*D_NET *143 0.00834478
*CONN
*I *968:A I *D sky130_fd_sc_hd__buf_1
*I *967:X O *D sky130_fd_sc_hd__and3_1
*CAP
1 *968:A 0.0030924
2 *967:X 0.0030924
3 *968:A *907:B 0.00104836
4 *968:A *916:B 6.07575e-06
5 *968:A *944:A1 0.00033867
6 *968:A *146:28 2.67184e-05
7 *968:A *146:72 0.000154977
8 *948:A *968:A 0.000197818
9 *967:A *968:A 2.51519e-05
10 *967:B *968:A 5.83121e-06
11 *1068:D *968:A 1.71824e-05
12 *35:10 *968:A 0.000293733
13 *93:50 *968:A 4.54581e-05
*RES
1 *967:X *968:A 47.4 
*END

*D_NET *144 0.00631336
*CONN
*I *972:A1 I *D sky130_fd_sc_hd__a211oi_1
*I *969:Y O *D sky130_fd_sc_hd__inv_2
*CAP
1 *972:A1 0.00101894
2 *969:Y 0.00101894
3 *972:A1 *892:B 0.000707733
4 *972:A1 *972:B1 1.7635e-05
5 *972:A1 *146:138 0.000399357
6 *972:A1 *176:118 0.000296755
7 *972:A1 *183:61 5.18003e-05
8 *972:A1 *186:18 0.000129072
9 *972:A1 *198:33 2.76356e-05
10 *972:A1 *208:34 0.000677049
11 *956:A *972:A1 2.49909e-05
12 *956:C *972:A1 0.000302773
13 *972:A2 *972:A1 0.000163058
14 *20:152 *972:A1 1.08758e-05
15 *20:175 *972:A1 3.80951e-05
16 *49:24 *972:A1 4.57023e-05
17 *84:39 *972:A1 0.00132294
18 *93:40 *972:A1 0
19 *112:52 *972:A1 6.00111e-05
*RES
1 *969:Y *972:A1 40.195 
*END

*D_NET *145 0.00714202
*CONN
*I *971:A I *D sky130_fd_sc_hd__clkbuf_4
*I *970:X O *D sky130_fd_sc_hd__and4_1
*CAP
1 *971:A 0.00133251
2 *970:X 0.00133251
3 *971:A *902:C 5.96947e-05
4 *971:A *983:B 4.18421e-05
5 *971:A *983:D 5.21706e-05
6 *971:A *1000:A1 2.32011e-05
7 *971:A *1060:CLK 0
8 *971:A *146:12 0.000409995
9 *971:A *154:26 0.00100261
10 *971:A *198:43 4.36573e-06
11 *899:B1 *971:A 0.00030615
12 *951:C *971:A 0.00103842
13 *953:A2 *971:A 4.77719e-05
14 *1058:D *971:A 0.000448893
15 *93:20 *971:A 0.00103049
16 *117:47 *971:A 1.1392e-05
*RES
1 *970:X *971:A 40.71 
*END

*D_NET *146 0.0316239
*CONN
*I *999:A I *D sky130_fd_sc_hd__nand2_2
*I *972:B1 I *D sky130_fd_sc_hd__a211oi_1
*I *993:C I *D sky130_fd_sc_hd__and4_1
*I *973:B I *D sky130_fd_sc_hd__or2_1
*I *980:C I *D sky130_fd_sc_hd__and3_1
*I *974:B I *D sky130_fd_sc_hd__nand2_2
*I *982:A4 I *D sky130_fd_sc_hd__a41o_1
*I *984:A I *D sky130_fd_sc_hd__and2_2
*I *1004:A2 I *D sky130_fd_sc_hd__a31o_1
*I *971:X O *D sky130_fd_sc_hd__clkbuf_4
*CAP
1 *999:A 0
2 *972:B1 7.08314e-05
3 *993:C 0.000430263
4 *973:B 0
5 *980:C 0.000529446
6 *974:B 0.000838865
7 *982:A4 0.000382521
8 *984:A 9.6343e-05
9 *1004:A2 0
10 *971:X 0.000463164
11 *146:138 0.000758279
12 *146:80 0.00134955
13 *146:78 0.000845493
14 *146:72 0.000805764
15 *146:51 0.000884928
16 *146:38 0.000936333
17 *146:28 0.00258231
18 *146:12 0.00202267
19 *972:B1 *186:18 2.14282e-05
20 *972:B1 *186:40 2.73222e-05
21 *974:B *974:A 9.81222e-05
22 *974:B *982:A3 0.000220704
23 *974:B *986:B 2.16607e-05
24 *974:B *148:10 4.6368e-06
25 *974:B *215:32 3.5427e-05
26 *980:C *995:B 0.000855897
27 *980:C *1034:A 9.02174e-05
28 *980:C *1037:A 7.86796e-05
29 *980:C *168:26 0.000229264
30 *980:C *176:16 0.000158046
31 *980:C *177:22 7.41888e-05
32 *980:C *219:16 8.247e-05
33 *982:A4 *982:A3 0.000409213
34 *982:A4 *991:A 4.4123e-05
35 *982:A4 *1028:A 0.00021097
36 *982:A4 *175:50 0.000415564
37 *984:A *908:A_N 0.000413354
38 *984:A *908:D 0.000413354
39 *993:C *993:B 2.05641e-05
40 *993:C *154:26 8.53113e-06
41 *993:C *159:24 0.000109451
42 *993:C *202:24 2.50933e-05
43 *146:12 *999:B 5.53249e-06
44 *146:12 *187:47 0.000313464
45 *146:12 *198:43 0.000119585
46 *146:38 *908:D 0.00143699
47 *146:38 *999:B 0.00124916
48 *146:38 *1004:A3 0.000404039
49 *146:38 *1004:B1 1.91597e-05
50 *146:51 *908:A_N 8.23457e-05
51 *146:51 *908:D 0.000126882
52 *146:51 *1004:A3 0
53 *146:51 *1004:B1 3.63243e-05
54 *146:72 *889:C 0.000166148
55 *146:72 *177:22 0.0015367
56 *146:78 *1006:C 0.000122337
57 *146:78 *175:50 0.000340896
58 *146:78 *177:22 4.79946e-05
59 *146:78 *194:49 0.000120655
60 *146:80 *175:50 0.000247205
61 *146:138 *892:B 0.000138794
62 *146:138 *186:18 0.00035524
63 *929:C *146:28 0.000214765
64 *942:A *972:B1 0
65 *942:A *993:C 3.25289e-05
66 *948:A *146:72 0.00102708
67 *951:B *993:C 0.000134948
68 *951:C *993:C 9.51996e-05
69 *960:B *146:72 0.000198651
70 *967:A *146:28 0.000228235
71 *967:B *146:28 8.72204e-05
72 *968:A *146:28 2.67184e-05
73 *968:A *146:72 0.000154977
74 *971:A *146:12 0.000409995
75 *972:A1 *972:B1 1.7635e-05
76 *972:A1 *146:138 0.000399357
77 *972:A2 *146:138 2.18924e-05
78 *1054:RESET_B *993:C 0.000238753
79 *1058:RESET_B *982:A4 1.31646e-05
80 *1058:RESET_B *146:72 0.0001946
81 *1058:RESET_B *146:78 3.92488e-05
82 *1058:RESET_B *146:80 8.53154e-05
83 *1062:D *980:C 7.41888e-05
84 *1069:D *972:B1 8.7152e-06
85 *1077:D *993:C 0.000375182
86 *1078:D *974:B 5.70585e-05
87 *1084:RESET_B *146:28 0.00021599
88 *20:175 *972:B1 2.55598e-05
89 *87:65 *146:72 0.000196991
90 *93:40 *146:28 0.00047337
91 *93:40 *146:38 0.000191232
92 *93:50 *146:72 8.247e-05
93 *94:10 *980:C 0.00162383
94 *112:18 *980:C 0.000226903
95 *112:96 *972:B1 9.14098e-06
96 *112:96 *993:C 5.82744e-05
97 *112:96 *146:138 4.66474e-05
98 *117:47 *146:12 3.65112e-06
99 *126:16 *982:A4 5.05437e-05
100 *142:18 *146:28 0.000349416
*RES
1 *971:X *146:12 13.52 
2 *146:12 *146:28 29.08 
3 *146:28 *146:38 19.665 
4 *146:38 *1004:A2 1.6 
5 *146:38 *146:51 3.6 
6 *146:51 *984:A 5.5 
7 *146:51 *146:72 30.35 
8 *146:72 *146:78 7.325 
9 *146:78 *146:80 3.165 
10 *146:80 *982:A4 13.725 
11 *146:80 *974:B 17.995 
12 *146:78 *980:C 26.5112 
13 *146:72 *973:B 1.6 
14 *146:28 *146:138 8.8625 
15 *146:138 *993:C 9.53317 
16 *146:138 *972:B1 5.1075 
17 *146:12 *999:A 1.6 
*END

*D_NET *147 0.00186627
*CONN
*I *975:B I *D sky130_fd_sc_hd__and3_1
*I *973:X O *D sky130_fd_sc_hd__or2_1
*CAP
1 *975:B 0.000819561
2 *973:X 0.000819561
3 *975:B *976:A 4.8854e-05
4 *975:B *1006:C 6.57496e-05
5 *975:B *194:57 0.000112547
*RES
1 *973:X *975:B 12.275 
*END

*D_NET *148 0.0192454
*CONN
*I *981:A2 I *D sky130_fd_sc_hd__o221a_1
*I *977:B I *D sky130_fd_sc_hd__xor2_1
*I *975:C I *D sky130_fd_sc_hd__and3_1
*I *974:Y O *D sky130_fd_sc_hd__nand2_2
*CAP
1 *981:A2 0.00248751
2 *977:B 0
3 *975:C 9.13909e-05
4 *974:Y 0.000498622
5 *148:41 0.00429622
6 *148:10 0.00239873
7 *975:C *1006:C 2.0514e-05
8 *981:A2 *910:B 0.0027978
9 *981:A2 *981:A1 4.55864e-06
10 *981:A2 *981:B1 0.000311556
11 *981:A2 *981:B2 8.7152e-06
12 *981:A2 *1007:A 0
13 *981:A2 *1019:A 8.22764e-05
14 *981:A2 *1076:CLK 4.4067e-05
15 *148:10 *986:B 6.59891e-05
16 *148:10 *995:B 0
17 *148:10 *164:12 0.00025513
18 *148:10 *184:66 1.88904e-05
19 *148:10 *215:32 0
20 *148:41 *976:A 0.00168383
21 *148:41 *1019:A 0.000100528
22 *148:41 *1061:CLK 0.000382212
23 *148:41 *1076:CLK 1.58335e-05
24 *148:41 *180:45 0
25 *148:41 *188:22 0
26 *912:A1 *148:41 0.000815847
27 *926:A *148:10 0
28 *927:B *148:41 0.000813189
29 *974:B *148:10 4.6368e-06
30 *975:A *975:C 9.30366e-05
31 *975:A *148:10 0
32 *975:A *148:41 0
33 *1055:RESET_B *148:41 4.2145e-05
34 *1078:D *148:10 3.31903e-05
35 *29:12 *981:A2 0.00026252
36 *51:26 *148:41 6.04678e-05
37 *62:26 *148:41 0.000339187
38 *97:14 *148:10 0.00014817
39 *97:14 *148:41 0.00106041
40 *117:47 *148:41 8.24893e-06
*RES
1 *974:Y *148:10 11.73 
2 *148:10 *975:C 4.8 
3 *148:10 *148:41 39.1929 
4 *148:41 *977:B 3.6 
5 *148:41 *981:A2 43.555 
*END

*D_NET *149 0.00619471
*CONN
*I *976:A I *D sky130_fd_sc_hd__clkbuf_1
*I *975:X O *D sky130_fd_sc_hd__and3_1
*CAP
1 *976:A 0.0015301
2 *975:X 0.0015301
3 *976:A *912:B1_N 0.000162944
4 *976:A *1006:C 0.000161984
5 *976:A *1061:CLK 4.04004e-05
6 *976:A *1088:A 2.92603e-05
7 *976:A *162:34 4.73889e-05
8 *976:A *188:22 3.59531e-06
9 *960:B *976:A 0.000134029
10 *975:B *976:A 4.8854e-05
11 *51:26 *976:A 0
12 *93:40 *976:A 0.000411108
13 *103:24 *976:A 0.000411108
14 *148:41 *976:A 0.00168383
*RES
1 *975:X *976:A 43.555 
*END

*D_NET *150 0.00238202
*CONN
*I *978:B I *D sky130_fd_sc_hd__nor2_1
*I *977:X O *D sky130_fd_sc_hd__xor2_1
*CAP
1 *978:B 0.000510019
2 *977:X 0.000510019
3 *911:A1 *978:B 0.00088418
4 *20:195 *978:B 0.000477803
*RES
1 *977:X *978:B 15.74 
*END

*D_NET *151 0.0155838
*CONN
*I *981:A1 I *D sky130_fd_sc_hd__o221a_1
*I *979:Y O *D sky130_fd_sc_hd__nand2_1
*CAP
1 *981:A1 0.00496533
2 *979:Y 0.00496533
3 *981:A1 *979:A 1.88602e-05
4 *981:A1 *981:B1 0.00126219
5 *981:A1 *981:B2 1.04411e-05
6 *981:A1 *988:B 0
7 *981:A1 *1007:A 0
8 *981:A1 *1038:A 0.00012905
9 *981:A1 *196:89 0
10 *981:A1 *196:108 0.000446911
11 *930:A *981:A1 0.000101392
12 *939:A2 *981:A1 0.000186202
13 *981:A2 *981:A1 4.55864e-06
14 *1068:RESET_B *981:A1 0.000190137
15 *1083:RESET_B *981:A1 0.000164407
16 *126:51 *981:A1 0.000586191
17 *126:72 *981:A1 0.00112237
18 *126:97 *981:A1 0.00143047
*RES
1 *979:Y *981:A1 20.9755 
*END

*D_NET *152 0.0169216
*CONN
*I *981:B1 I *D sky130_fd_sc_hd__o221a_1
*I *980:X O *D sky130_fd_sc_hd__and3_1
*CAP
1 *981:B1 0.00536609
2 *980:X 0.00536609
3 *981:B1 *901:A1 6.6628e-06
4 *981:B1 *910:B 0.000226549
5 *981:B1 *981:B2 8.7152e-06
6 *981:B1 *983:A 0.000248501
7 *981:B1 *983:B 2.1832e-05
8 *981:B1 *1007:A 0.000496363
9 *981:B1 *195:53 0.000830519
10 *981:B1 *195:63 0.000548578
11 *981:B1 *195:73 8.15092e-05
12 *981:B1 *196:108 0.000257172
13 *981:B1 *199:18 4.19454e-05
14 *981:B1 *213:28 7.5434e-05
15 *918:A *981:B1 1.7635e-05
16 *933:B *981:B1 0.0001465
17 *951:B *981:B1 0.000907375
18 *981:A1 *981:B1 0.00126219
19 *981:A2 *981:B1 0.000311556
20 *981:C1 *981:B1 4.55864e-06
21 *1065:RESET_B *981:B1 0.000108385
22 *1072:D *981:B1 0.000270392
23 *29:12 *981:B1 0.000217089
24 *97:14 *981:B1 8.23457e-05
25 *112:18 *981:B1 1.7635e-05
*RES
1 *980:X *981:B1 21.7156 
*END

*D_NET *153 0.00401788
*CONN
*I *986:B I *D sky130_fd_sc_hd__and3_1
*I *982:X O *D sky130_fd_sc_hd__a41o_1
*CAP
1 *986:B 0.00078397
2 *982:X 0.00078397
3 *986:B *954:B 0.000122797
4 *986:B *982:A1 0.00113318
5 *986:B *987:A 8.40269e-05
6 *986:B *184:33 7.42438e-05
7 *986:B *184:66 0.000110368
8 *986:B *188:22 0
9 *986:B *188:28 6.60368e-05
10 *986:B *215:32 0
11 *922:A *986:B 4.43603e-05
12 *974:B *986:B 2.16607e-05
13 *1016:A *986:B 0
14 *1083:RESET_B *986:B 5.75488e-05
15 *126:16 *986:B 0.000620285
16 *133:14 *986:B 4.94457e-05
17 *148:10 *986:B 6.59891e-05
*RES
1 *982:X *986:B 26.01 
*END

*D_NET *154 0.0141372
*CONN
*I *993:D I *D sky130_fd_sc_hd__and4_1
*I *998:B I *D sky130_fd_sc_hd__and2_1
*I *984:B I *D sky130_fd_sc_hd__and2_2
*I *983:X O *D sky130_fd_sc_hd__and4_1
*CAP
1 *993:D 0
2 *998:B 2.11176e-05
3 *984:B 0.000577469
4 *983:X 0.00144145
5 *154:44 0.00214684
6 *154:26 0.0029897
7 *984:B *908:B 8.53113e-06
8 *984:B *992:A 0.000470865
9 *984:B *1025:A 0.000132555
10 *154:26 *891:A 0.000183029
11 *154:26 *910:A 2.0514e-05
12 *154:26 *910:C 0.000516314
13 *154:26 *970:A 0.000661255
14 *154:26 *983:A 0.000198244
15 *154:26 *983:B 1.33285e-05
16 *154:26 *983:C 3.38425e-05
17 *154:26 *983:D 0.000304052
18 *154:26 *993:A 9.30614e-05
19 *154:26 *1001:A 4.66108e-05
20 *154:26 *159:24 5.16418e-05
21 *154:26 *167:20 3.59784e-05
22 *154:44 *1025:A 5.33075e-05
23 *154:44 *1064:CLK 0.000200148
24 *154:44 *159:24 0.000233487
25 *154:44 *175:80 0.000110785
26 *908:C *984:B 0.000345347
27 *908:C *154:44 0.000486898
28 *912:A2 *154:44 0.000109489
29 *925:A *154:26 1.08758e-05
30 *942:A *154:26 0.000161529
31 *942:C *154:26 0.000129801
32 *942:C *154:44 8.23457e-05
33 *943:A *154:44 0.000105383
34 *953:A2 *154:26 0.000187433
35 *970:C *154:26 0.000157365
36 *971:A *154:26 0.00100261
37 *993:C *154:26 8.53113e-06
38 *1055:RESET_B *984:B 2.02052e-05
39 *1077:RESET_B *154:44 0.000207211
40 *1084:D *154:44 0.000137535
41 *80:18 *984:B 0
42 *87:44 *154:44 1.88656e-05
43 *101:18 *154:26 0.000263595
44 *118:38 *154:44 0.000158066
*RES
1 *983:X *154:26 42.915 
2 *154:26 *154:44 31.235 
3 *154:44 *984:B 19.115 
4 *154:44 *998:B 1.96 
5 *154:26 *993:D 1.6 
*END

*D_NET *155 0.0225508
*CONN
*I *989:B I *D sky130_fd_sc_hd__nand2_1
*I *988:B I *D sky130_fd_sc_hd__or2_1
*I *985:A I *D sky130_fd_sc_hd__inv_2
*I *984:X O *D sky130_fd_sc_hd__and2_2
*CAP
1 *989:B 0.00217476
2 *988:B 0.00103016
3 *985:A 0.00095804
4 *984:X 0.000523723
5 *155:39 0.0049679
6 *155:18 0.00324475
7 *985:A *994:A1 0
8 *985:A *166:69 0
9 *988:B *910:C 8.23228e-05
10 *988:B *934:A 0.000117168
11 *988:B *197:41 0.00080873
12 *988:B *199:41 0.000117278
13 *989:B *989:A 6.55395e-05
14 *989:B *1080:CLK 2.49909e-05
15 *989:B *189:63 8.10867e-05
16 *989:B *191:69 0.000345492
17 *989:B *194:31 9.49093e-05
18 *155:18 *908:A_N 2.39856e-05
19 *155:18 *908:B 4.88205e-05
20 *155:18 *908:D 0.000223254
21 *155:18 *916:B 0.000119242
22 *155:18 *994:A1 0
23 *155:39 *1061:CLK 7.31181e-05
24 *155:39 *194:31 0.000617991
25 *155:39 *211:10 1.91597e-05
26 *894:B *989:B 0.000338212
27 *911:A2 *985:A 0.000365327
28 *911:A2 *155:18 0.000170197
29 *924:C *989:B 7.37942e-05
30 *939:A1 *985:A 0.001176
31 *942:C *989:B 0.00014874
32 *943:A *989:B 0.000327658
33 *943:A *155:39 0.000735172
34 *947:B *985:A 0
35 *947:B *155:18 0
36 *981:A1 *988:B 0
37 *1061:D *155:39 0.000256552
38 *1062:D *989:B 0.000263595
39 *1062:D *155:39 0.000697756
40 *1069:D *988:B 0.000296834
41 *1072:RESET_B *988:B 0.000597465
42 *1079:RESET_B *989:B 4.31856e-05
43 *1080:RESET_B *989:B 0.000172392
44 *1083:RESET_B *988:B 0.000329177
45 *32:16 *985:A 0.000150422
46 *32:16 *155:18 6.88421e-05
47 *62:26 *988:B 2.90617e-05
48 *86:43 *988:B 0.000120164
49 *94:10 *985:A 0
50 *117:47 *988:B 7.48122e-05
51 *117:47 *989:B 0.000353035
*RES
1 *984:X *155:18 15.31 
2 *155:18 *985:A 24.87 
3 *155:18 *155:39 33.395 
4 *155:39 *988:B 18.4636 
5 *155:39 *989:B 45.72 
*END

*D_NET *156 0.00489557
*CONN
*I *986:C I *D sky130_fd_sc_hd__and3_1
*I *985:Y O *D sky130_fd_sc_hd__inv_2
*CAP
1 *986:C 0.00160715
2 *985:Y 0.00160715
3 *986:C *945:B 0.000105463
4 *986:C *997:C 0.00136691
5 *986:C *1000:A2 7.46869e-05
6 *939:A1 *986:C 0
7 *32:16 *986:C 0.000131248
8 *94:10 *986:C 2.97004e-06
*RES
1 *985:Y *986:C 27.8475 
*END

*D_NET *157 0.00322446
*CONN
*I *987:A I *D sky130_fd_sc_hd__clkbuf_1
*I *986:X O *D sky130_fd_sc_hd__and3_1
*CAP
1 *987:A 0.000638299
2 *986:X 0.000638299
3 *922:A *987:A 0.000855435
4 *986:B *987:A 8.40269e-05
5 *1056:D *987:A 0.000202179
6 *1064:RESET_B *987:A 0.000280922
7 *37:12 *987:A 0.000525303
*RES
1 *986:X *987:A 21.72 
*END

*D_NET *158 0.00933694
*CONN
*I *990:B I *D sky130_fd_sc_hd__and3_1
*I *988:X O *D sky130_fd_sc_hd__or2_1
*CAP
1 *990:B 3.6458e-05
2 *988:X 0.00193792
3 *158:20 0.00197437
4 *158:20 *1070:CLK 0
5 *158:20 *159:10 0.000154981
6 *158:20 *159:24 0.000939447
7 *158:20 *193:22 0.000240134
8 *158:20 *198:37 0.000337221
9 *158:20 *203:48 0.000130089
10 *929:A *158:20 0.000556064
11 *963:C *990:B 6.87462e-05
12 *967:B *158:20 2.60397e-05
13 *1059:D *158:20 0.000167028
14 *1070:RESET_B *990:B 3.42656e-05
15 *1072:D *158:20 0.000562924
16 *1084:RESET_B *158:20 2.53191e-06
17 *85:16 *158:20 0.00116911
18 *103:24 *158:20 0.00028769
19 *103:38 *158:20 0.000711917
*RES
1 *988:X *158:20 48.72 
2 *158:20 *990:B 6.47 
*END

*D_NET *159 0.0145386
*CONN
*I *990:C I *D sky130_fd_sc_hd__and3_1
*I *994:A2 I *D sky130_fd_sc_hd__a211oi_1
*I *989:Y O *D sky130_fd_sc_hd__nand2_1
*CAP
1 *990:C 0.000111731
2 *994:A2 8.22935e-05
3 *989:Y 0.000963413
4 *159:24 0.0019551
5 *159:10 0.00294795
6 *990:C *1080:CLK 7.95314e-05
7 *990:C *214:62 0.000170024
8 *159:10 *187:79 0.000669543
9 *159:24 *898:A1 1.7635e-05
10 *159:24 *903:A 9.61675e-05
11 *159:24 *993:A 0
12 *159:24 *1012:A 0.000231802
13 *159:24 *1012:B 9.55262e-06
14 *159:24 *176:118 0.000190309
15 *159:24 *185:43 0.000849671
16 *159:24 *186:18 0.000153816
17 *159:24 *189:10 0
18 *159:24 *196:10 5.05981e-05
19 *159:24 *196:18 0.000105196
20 *895:A2 *994:A2 7.40446e-05
21 *914:B *159:10 0.000485521
22 *914:B *159:24 0.000640361
23 *942:A *159:24 0
24 *943:A *159:24 2.43422e-05
25 *951:B *159:24 0.000243962
26 *952:A *159:24 0.000101807
27 *990:A *990:C 0.000143718
28 *993:C *159:24 0.000109451
29 *1066:D *159:24 0.00102553
30 *1067:D *159:24 0.000113493
31 *1084:RESET_B *159:24 0.000774983
32 *1086:A *159:24 4.36573e-06
33 *87:32 *994:A2 8.52845e-05
34 *87:44 *159:24 0.000168689
35 *112:52 *159:24 0.000120708
36 *112:75 *159:24 0.000187982
37 *119:47 *990:C 0.000170436
38 *154:26 *159:24 5.16418e-05
39 *154:44 *159:24 0.000233487
40 *158:20 *159:10 0.000154981
41 *158:20 *159:24 0.000939447
*RES
1 *989:Y *159:10 15.28 
2 *159:10 *159:24 49.91 
3 *159:24 *994:A2 5.085 
4 *159:10 *990:C 9.11 
*END

*D_NET *160 0.0122997
*CONN
*I *991:A I *D sky130_fd_sc_hd__clkbuf_1
*I *990:X O *D sky130_fd_sc_hd__and3_1
*CAP
1 *991:A 0.00292456
2 *990:X 0.00292456
3 *991:A *982:A3 9.50342e-06
4 *991:A *1000:A2 3.46878e-05
5 *991:A *1004:B1 0.000950591
6 *991:A *1011:B 0.000863215
7 *991:A *1017:A2 0.000102269
8 *991:A *168:26 0.000631428
9 *991:A *184:66 0.000766917
10 *991:A *192:57 0.000218773
11 *951:B *991:A 0.000339423
12 *963:A *991:A 0.000149951
13 *963:C *991:A 0.000830973
14 *964:A *991:A 8.00033e-05
15 *982:A4 *991:A 4.4123e-05
16 *1000:C1 *991:A 0.000124904
17 *1016:A *991:A 0.000104247
18 *1058:RESET_B *991:A 1.73021e-05
19 *1077:D *991:A 6.37907e-05
20 *1078:RESET_B *991:A 0.000187435
21 *1079:D *991:A 1.5971e-05
22 *1086:A *991:A 0.00012323
23 *119:47 *991:A 0.000791833
*RES
1 *990:X *991:A 32.8545 
*END

*D_NET *161 0.0121094
*CONN
*I *994:A1 I *D sky130_fd_sc_hd__a211oi_1
*I *992:Y O *D sky130_fd_sc_hd__inv_2
*CAP
1 *994:A1 0.00287606
2 *992:Y 0.00287606
3 *994:A1 *934:A 0.000483871
4 *994:A1 *992:A 0.00270465
5 *994:A1 *994:B1 0.000240068
6 *994:A1 *166:69 8.53113e-06
7 *994:A1 *183:28 4.91346e-05
8 *994:A1 *200:35 0.000356172
9 *908:C *994:A1 0
10 *911:A1 *994:A1 1.19928e-05
11 *911:A2 *994:A1 0
12 *933:A *994:A1 0.000479923
13 *933:B *994:A1 0.000157177
14 *933:C *994:A1 0
15 *942:A *994:A1 3.72899e-05
16 *942:B *994:A1 6.72143e-05
17 *947:B *994:A1 0.00104546
18 *985:A *994:A1 0
19 *1075:RESET_B *994:A1 3.96676e-05
20 *80:18 *994:A1 0
21 *87:32 *994:A1 2.34662e-05
22 *87:44 *994:A1 5.83898e-05
23 *101:18 *994:A1 0.00059431
24 *155:18 *994:A1 0
*RES
1 *992:Y *994:A1 48.2907 
*END

*D_NET *162 0.0173635
*CONN
*I *994:B1 I *D sky130_fd_sc_hd__a211oi_1
*I *996:B I *D sky130_fd_sc_hd__and2_1
*I *995:B I *D sky130_fd_sc_hd__nor2_1
*I *993:X O *D sky130_fd_sc_hd__and4_1
*CAP
1 *994:B1 0.000213946
2 *996:B 0
3 *995:B 0.00104776
4 *993:X 7.48881e-05
5 *162:38 0.00105785
6 *162:34 0.00192584
7 *162:8 0.00220458
8 *994:B1 *953:B1 2.30526e-05
9 *994:B1 *970:A 6.65747e-05
10 *994:B1 *183:24 3.12494e-05
11 *995:B *889:C 0
12 *995:B *995:A 0.0013215
13 *995:B *1037:A 0.000553728
14 *995:B *164:12 0
15 *995:B *176:16 0.000301011
16 *995:B *222:16 6.67019e-05
17 *162:8 *891:A 1.91597e-05
18 *162:34 *907:B 5.85443e-05
19 *162:34 *912:B1_N 3.83233e-05
20 *162:34 *916:B 0.000338916
21 *162:34 *938:A 9.01026e-05
22 *162:34 *970:A 5.07376e-05
23 *162:34 *1035:A 0.000109782
24 *162:34 *1088:A 0.000240998
25 *162:34 *178:33 1.1477e-05
26 *162:34 *183:28 0
27 *162:34 *195:63 1.30972e-05
28 *162:34 *195:73 1.23268e-05
29 *162:34 *201:40 0.000676974
30 *162:38 *995:A 3.74161e-05
31 *897:B *162:34 0.000383759
32 *898:B1 *162:34 0.000111993
33 *942:A *994:B1 2.85364e-05
34 *942:A *162:8 0.000231326
35 *942:A *162:34 2.8531e-05
36 *942:C *162:8 0.000145634
37 *943:A *162:34 0.000242688
38 *952:A *995:B 0.000274061
39 *956:B *162:8 4.7003e-05
40 *956:B *162:34 0.000152455
41 *975:A *995:B 2.78367e-05
42 *975:A *162:34 0.00012923
43 *976:A *162:34 4.73889e-05
44 *980:C *995:B 0.000855897
45 *994:A1 *994:B1 0.000240068
46 *997:A *995:B 0.000712452
47 *1056:D *995:B 0.000214654
48 *1057:RESET_B *162:34 0.000133774
49 *1061:D *162:34 2.35634e-05
50 *1061:RESET_B *162:34 0.000153816
51 *1062:D *995:B 8.41307e-05
52 *1062:D *162:34 6.3685e-05
53 *1062:D *162:38 4.66108e-05
54 *1062:RESET_B *995:B 0.000255134
55 *1077:D *162:34 9.387e-06
56 *20:175 *994:B1 9.88433e-05
57 *37:12 *995:B 0
58 *51:26 *162:34 1.29029e-05
59 *84:12 *995:B 0.00110989
60 *87:32 *994:B1 2.2142e-05
61 *87:44 *162:34 0.000650246
62 *97:14 *995:B 1.91597e-05
63 *112:39 *162:34 0.000188756
64 *118:38 *162:34 3.1388e-05
65 *148:10 *995:B 0
*RES
1 *993:X *162:8 6.12 
2 *162:8 *162:34 48.2 
3 *162:34 *162:38 2.45 
4 *162:38 *995:B 44.715 
5 *162:38 *996:B 1.6 
6 *162:8 *994:B1 8.34 
*END

*D_NET *163 0.0011903
*CONN
*I *997:B I *D sky130_fd_sc_hd__nor3_1
*I *995:Y O *D sky130_fd_sc_hd__nor2_1
*CAP
1 *997:B 0.000539096
2 *995:Y 0.000539096
3 *997:B *1100:A 6.13283e-05
4 *997:A *997:B 4.6075e-05
5 *35:8 *997:B 4.7072e-06
*RES
1 *995:Y *997:B 15.585 
*END

*D_NET *164 0.0128763
*CONN
*I *1000:A2 I *D sky130_fd_sc_hd__o211a_1
*I *997:C I *D sky130_fd_sc_hd__nor3_1
*I *996:X O *D sky130_fd_sc_hd__and2_1
*CAP
1 *1000:A2 0.0021779
2 *997:C 0.00048128
3 *996:X 0.000279854
4 *164:12 0.00293904
5 *1000:A2 *1000:A1 0.000137893
6 *1000:A2 *1009:C1 0.00114359
7 *918:A *997:C 0.0011124
8 *918:A *1000:A2 0.000127132
9 *922:A *997:C 0.00012406
10 *952:A *997:C 3.32909e-05
11 *963:A *1000:A2 8.90672e-05
12 *975:A *164:12 0
13 *986:C *997:C 0.00136691
14 *986:C *1000:A2 7.46869e-05
15 *991:A *1000:A2 3.46878e-05
16 *995:B *164:12 0
17 *1000:C1 *1000:A2 1.01152e-05
18 *1062:RESET_B *997:C 0.000567721
19 *1070:RESET_B *1000:A2 7.59644e-05
20 *20:8 *1000:A2 0.000154977
21 *32:16 *997:C 1.19928e-05
22 *35:10 *997:C 0.000505139
23 *97:14 *164:12 0.000159156
24 *103:66 *1000:A2 2.01565e-05
25 *103:68 *1000:A2 6.33103e-05
26 *103:74 *1000:A2 0.000735911
27 *103:76 *1000:A2 8.41307e-05
28 *112:137 *1000:A2 0.000110781
29 *148:10 *164:12 0.00025513
*RES
1 *996:X *164:12 10.25 
2 *164:12 *997:C 25.205 
3 *164:12 *1000:A2 35.3 
*END

*D_NET *165 0.0138434
*CONN
*I *999:B I *D sky130_fd_sc_hd__nand2_2
*I *1004:A3 I *D sky130_fd_sc_hd__a31o_1
*I *998:X O *D sky130_fd_sc_hd__and2_1
*CAP
1 *999:B 0.00107296
2 *1004:A3 0.000139795
3 *998:X 0.000828363
4 *165:12 0.00204112
5 *999:B *1001:A 0.000191335
6 *999:B *187:47 8.05681e-05
7 *999:B *191:22 1.91597e-05
8 *999:B *198:43 0.000208484
9 *999:B *203:60 0.00190258
10 *1004:A3 *1004:B1 0.000154508
11 *1004:A3 *203:60 0.00019329
12 *165:12 *907:A_N 4.66108e-05
13 *165:12 *907:B 0.000828893
14 *165:12 *907:D 1.10377e-05
15 *165:12 *180:10 6.97124e-05
16 *165:12 *180:21 0.000326263
17 *165:12 *180:32 0.000195346
18 *165:12 *180:43 0.000109743
19 *908:C *165:12 0.000496881
20 *924:C *999:B 0.000377408
21 *925:A *999:B 0.00137841
22 *930:A *999:B 0.000109377
23 *962:B *999:B 2.05665e-05
24 *1077:RESET_B *165:12 3.50481e-05
25 *48:22 *165:12 8.01191e-05
26 *93:30 *999:B 0.000181617
27 *93:40 *999:B 0.000737747
28 *137:31 *999:B 0.00015639
29 *137:33 *999:B 0.000191335
30 *146:12 *999:B 5.53249e-06
31 *146:38 *999:B 0.00124916
32 *146:38 *1004:A3 0.000404039
33 *146:51 *1004:A3 0
*RES
1 *998:X *165:12 22.49 
2 *165:12 *1004:A3 5.965 
3 *165:12 *999:B 43.76 
*END

*D_NET *166 0.0207525
*CONN
*I *1008:A2_N I *D sky130_fd_sc_hd__a2bb2o_1
*I *1000:B1 I *D sky130_fd_sc_hd__o211a_1
*I *1005:C I *D sky130_fd_sc_hd__or3_1
*I *224:DIODE I *D sky130_fd_sc_hd__diode_2
*I *1002:B I *D sky130_fd_sc_hd__xnor2_1
*I *999:Y O *D sky130_fd_sc_hd__nand2_2
*CAP
1 *1008:A2_N 9.4918e-05
2 *1000:B1 2.65369e-05
3 *1005:C 0
4 *224:DIODE 8.8201e-05
5 *1002:B 0.000221297
6 *999:Y 0.0004293
7 *166:69 0.00350215
8 *166:29 0.00384315
9 *166:14 0.000991099
10 *166:8 0.000891361
11 *1002:B *1043:A 0.000267067
12 *1002:B *1068:CLK 6.81888e-05
13 *1002:B *168:26 0.000551608
14 *1002:B *177:123 0.000274685
15 *1008:A2_N *1008:A1_N 5.61185e-05
16 *166:8 *900:A 4.27883e-06
17 *166:8 *902:B 0.000919999
18 *166:8 *919:A 0.000131444
19 *166:8 *187:47 0.000696178
20 *166:8 *187:49 0.000153065
21 *166:8 *187:55 0.000192653
22 *166:8 *206:20 0.000123696
23 *166:8 *206:22 0.000195462
24 *166:14 *900:A 0.000251226
25 *166:14 *919:A 0.000699126
26 *166:14 *168:26 0.00012732
27 *166:14 *177:123 0.000148785
28 *166:29 *175:153 1.17409e-05
29 *166:69 *961:A 0.000874369
30 *166:69 *992:A 1.26548e-05
31 *166:69 *1005:A 7.62648e-05
32 *166:69 *175:153 0.000587631
33 *166:69 *195:73 0.000243328
34 *166:69 *199:18 0.000319856
35 *166:69 *203:48 8.31406e-05
36 *166:69 *204:43 6.14446e-05
37 *166:69 *213:28 0.000587667
38 *918:A *166:69 0.000178725
39 *921:C *1002:B 0.000122202
40 *945:D *166:69 7.23602e-05
41 *963:B *166:69 0.000277301
42 *985:A *166:69 0
43 *994:A1 *166:69 8.53113e-06
44 *1000:C1 *1000:B1 4.87465e-06
45 *1000:C1 *166:29 2.54431e-05
46 *1000:C1 *166:69 5.0751e-05
47 *1005:B *166:69 7.08493e-05
48 *1008:B2 *1008:A2_N 0.00037454
49 *1008:B2 *166:8 0.000177417
50 *1068:RESET_B *166:69 7.02017e-05
51 *1078:D *166:69 0.00026815
52 *1078:RESET_B *166:69 0.000451736
53 *1081:RESET_B *166:69 0.000138129
54 *1086:A *166:69 7.43731e-05
55 *62:26 *166:69 7.98953e-05
56 *94:10 *166:69 0
57 *112:18 *166:69 0.000198067
58 *117:10 *1008:A2_N 0.000301905
*RES
1 *999:Y *166:8 20.025 
2 *166:8 *166:14 10.605 
3 *166:14 *1002:B 11.475 
4 *166:14 *166:29 7.28 
5 *166:29 *166:69 43.6571 
6 *166:69 *224:DIODE 2.74 
7 *166:69 *1005:C 1.6 
8 *166:29 *1000:B1 2.215 
9 *166:8 *1008:A2_N 7.155 
*END

*D_NET *167 0.0240129
*CONN
*I *1008:A1_N I *D sky130_fd_sc_hd__a2bb2o_1
*I *1002:A I *D sky130_fd_sc_hd__xnor2_1
*I *1005:A I *D sky130_fd_sc_hd__or3_1
*I *1001:Y O *D sky130_fd_sc_hd__inv_2
*CAP
1 *1008:A1_N 0.000279999
2 *1002:A 0.000483589
3 *1005:A 0.00258545
4 *1001:Y 0.00153776
5 *167:43 0.0016615
6 *167:20 0.00502112
7 *1002:A *919:A 1.15688e-05
8 *1002:A *919:C 0.000956352
9 *1002:A *168:26 0.000117327
10 *1002:A *177:117 0.000569247
11 *1002:A *207:18 3.23391e-05
12 *1005:A *903:C 1.00868e-05
13 *1005:A *1006:C 0.000488403
14 *1005:A *194:49 0.000219856
15 *1005:A *212:25 1.15688e-05
16 *167:20 *1009:A1 0.00067044
17 *167:20 *182:17 0.000134243
18 *167:20 *182:28 0.000308128
19 *167:20 *182:72 0.000286576
20 *167:20 *185:27 0.000349205
21 *167:20 *189:63 0.000138758
22 *167:20 *191:33 0.000363079
23 *167:20 *191:43 0.000424405
24 *167:20 *205:12 3.92756e-05
25 *167:20 *214:72 0.000113621
26 *167:43 *903:C 0.000107925
27 *167:43 *919:C 7.3917e-05
28 *167:43 *207:18 4.23697e-05
29 *167:43 *213:14 0
30 *917:B *1005:A 0.00049085
31 *917:C *1005:A 0.000938584
32 *921:C *1002:A 0.000256507
33 *952:A *1005:A 0.000339124
34 *957:A *1005:A 3.95127e-05
35 *957:A *167:43 7.93454e-06
36 *964:A *167:43 2.88345e-05
37 *966:C *167:20 0.000937967
38 *970:C *167:20 4.66108e-05
39 *1005:B *1005:A 7.3345e-05
40 *1008:A2_N *1008:A1_N 5.61185e-05
41 *1008:B2 *1008:A1_N 2.20014e-05
42 *1058:RESET_B *1005:A 0.00254717
43 *1075:RESET_B *1005:A 3.61749e-05
44 *1075:RESET_B *167:43 9.88955e-05
45 *1077:D *167:20 0.000223986
46 *1081:RESET_B *1005:A 0
47 *35:10 *1005:A 0.000243111
48 *86:51 *167:20 2.60661e-05
49 *91:27 *167:43 0
50 *103:66 *1005:A 0.000340394
51 *117:10 *1008:A1_N 0.000109386
52 *154:26 *167:20 3.59784e-05
53 *166:69 *1005:A 7.62648e-05
*RES
1 *1001:Y *167:20 29.2969 
2 *167:20 *1005:A 18.5328 
3 *167:20 *167:43 3.31263 
4 *167:43 *1002:A 19.26 
5 *167:43 *1008:A1_N 7.875 
*END

*D_NET *168 0.0173425
*CONN
*I *1003:B I *D sky130_fd_sc_hd__nor2_1
*I *1002:Y O *D sky130_fd_sc_hd__xnor2_1
*CAP
1 *1003:B 0.000558868
2 *1002:Y 0.00279294
3 *168:26 0.00335181
4 *1003:B *938:A 0.00213664
5 *1003:B *1027:A 0.00103759
6 *168:26 *889:C 0.000118081
7 *168:26 *919:A 0.00032177
8 *168:26 *1009:A1 0.000551321
9 *168:26 *1011:B 0.000154286
10 *168:26 *1035:A 0.000148799
11 *168:26 *184:66 0.0001769
12 *168:26 *201:40 0.000837219
13 *168:26 *204:43 0.000254152
14 *168:26 *214:43 0.000276852
15 *921:C *168:26 0
16 *961:B *168:26 0.000241651
17 *980:C *168:26 0.000229264
18 *991:A *168:26 0.000631428
19 *1002:A *168:26 0.000117327
20 *1002:B *168:26 0.000551608
21 *1003:A *1003:B 0.000351445
22 *1055:RESET_B *168:26 0.000119366
23 *1061:D *168:26 0.000216206
24 *1061:RESET_B *1003:B 0.000106338
25 *1077:D *168:26 1.81196e-05
26 *1078:RESET_B *168:26 0.00101949
27 *1079:RESET_B *168:26 0.00029123
28 *51:26 *168:26 0.000291899
29 *62:26 *1003:B 8.72683e-05
30 *112:18 *168:26 0.00022534
31 *166:14 *168:26 0.00012732
*RES
1 *1002:Y *168:26 41.8026 
2 *168:26 *1003:B 22.075 
*END

*D_NET *169 0.0117752
*CONN
*I *1006:B I *D sky130_fd_sc_hd__and3_1
*I *1004:X O *D sky130_fd_sc_hd__a31o_1
*CAP
1 *1006:B 0.00129369
2 *1004:X 0.00142751
3 *169:8 0.00272119
4 *1006:B *892:B 0.00117788
5 *1006:B *903:D 0.000715725
6 *1006:B *940:A 6.60257e-06
7 *1006:B *1006:C 6.39244e-05
8 *1006:B *1010:A 2.90867e-05
9 *1006:B *1010:B 0.000531216
10 *1006:B *1078:CLK 0.000671535
11 *1006:B *186:18 0.000971257
12 *1006:B *197:41 0
13 *1006:B *208:34 3.97409e-05
14 *1006:B *214:43 7.23602e-05
15 *169:8 *1004:B1 0.00033764
16 *169:8 *201:40 0.000229645
17 *169:8 *203:60 0.000681395
18 *922:A *1006:B 8.41384e-05
19 *20:129 *169:8 8.35068e-05
20 *103:113 *1006:B 0.000637173
*RES
1 *1004:X *169:8 21.3 
2 *169:8 *1006:B 39.735 
*END

*D_NET *170 0.00939513
*CONN
*I *1006:C I *D sky130_fd_sc_hd__and3_1
*I *1005:X O *D sky130_fd_sc_hd__or3_1
*CAP
1 *1006:C 0.00233515
2 *1005:X 0.00233515
3 *1006:C *903:D 0.000363007
4 *1006:C *979:B 3.02538e-05
5 *1006:C *1010:A 0.00110966
6 *1006:C *194:49 0.000136034
7 *1006:C *194:57 0.000485729
8 *1006:C *207:18 2.84635e-05
9 *1006:C *214:43 0.000208061
10 *975:A *1006:C 0.000235851
11 *975:B *1006:C 6.57496e-05
12 *975:C *1006:C 2.0514e-05
13 *976:A *1006:C 0.000161984
14 *1005:A *1006:C 0.000488403
15 *1006:B *1006:C 6.39244e-05
16 *1057:RESET_B *1006:C 0.000588585
17 *103:113 *1006:C 0.000616277
18 *146:78 *1006:C 0.000122337
*RES
1 *1005:X *1006:C 49.44 
*END

*D_NET *171 0.0157574
*CONN
*I *1007:A I *D sky130_fd_sc_hd__buf_1
*I *1006:X O *D sky130_fd_sc_hd__and3_1
*CAP
1 *1007:A 0.00533733
2 *1006:X 0.00533733
3 *1007:A *892:B 0.000126381
4 *1007:A *901:A1 9.39045e-07
5 *1007:A *977:A 0.000119151
6 *1007:A *1076:CLK 6.63219e-06
7 *1007:A *195:28 0.000171843
8 *1007:A *195:73 7.76406e-06
9 *1007:A *196:89 0.000882616
10 *1007:A *199:18 0.00167814
11 *1007:A *200:35 0
12 *939:A2 *1007:A 7.48122e-05
13 *951:B *1007:A 0.000168786
14 *981:A1 *1007:A 0
15 *981:A2 *1007:A 0
16 *981:B1 *1007:A 0.000496363
17 *1065:RESET_B *1007:A 0
18 *1068:RESET_B *1007:A 7.9247e-05
19 *1069:D *1007:A 0.00110768
20 *1079:D *1007:A 2.79856e-05
21 *20:22 *1007:A 1.88602e-05
22 *71:22 *1007:A 0.000115549
*RES
1 *1006:X *1007:A 21.3251 
*END

*D_NET *172 0.00656934
*CONN
*I *1009:C1 I *D sky130_fd_sc_hd__o211a_1
*I *1008:X O *D sky130_fd_sc_hd__a2bb2o_1
*CAP
1 *1009:C1 0.000838781
2 *1008:X 0.000838781
3 *1009:C1 *900:A 0.00147273
4 *1009:C1 *1009:A2 4.30166e-05
5 *1009:C1 *177:117 4.66108e-05
6 *1009:C1 *177:123 0.00018955
7 *1009:C1 *207:18 8.51397e-05
8 *921:C *1009:C1 0.00055089
9 *935:B *1009:C1 0.000656851
10 *1000:A2 *1009:C1 0.00114359
11 *1009:B1 *1009:C1 5.4155e-06
12 *1073:RESET_B *1009:C1 0.000489968
13 *1080:D *1009:C1 7.99009e-05
14 *1080:RESET_B *1009:C1 8.33066e-06
15 *112:137 *1009:C1 4.60123e-05
16 *112:141 *1009:C1 1.05984e-05
17 *117:47 *1009:C1 6.31803e-05
*RES
1 *1008:X *1009:C1 35.16 
*END

*D_NET *173 0.0237093
*CONN
*I *1015:A2 I *D sky130_fd_sc_hd__a21oi_1
*I *1011:B I *D sky130_fd_sc_hd__nor2_1
*I *1014:A2 I *D sky130_fd_sc_hd__a21boi_1
*I *1017:A2 I *D sky130_fd_sc_hd__a21oi_1
*I *1010:Y O *D sky130_fd_sc_hd__nor2_2
*CAP
1 *1015:A2 4.4937e-05
2 *1011:B 0.00536424
3 *1014:A2 3.4534e-05
4 *1017:A2 0.00110181
5 *1010:Y 0.000372171
6 *173:60 0.00580481
7 *173:18 0.00216712
8 *173:12 0.00179858
9 *1011:B *989:A 5.89988e-05
10 *1011:B *1042:A 0
11 *1011:B *1096:A 0.000241664
12 *1011:B *175:153 5.69618e-05
13 *1011:B *210:34 2.84546e-05
14 *1014:A2 *184:33 2.53191e-06
15 *1014:A2 *184:66 8.69417e-06
16 *1015:A2 *1050:A 4.07562e-05
17 *1015:A2 *1099:A 1.05984e-05
18 *1017:A2 *1004:B1 3.95414e-05
19 *1017:A2 *184:10 0.000165617
20 *173:12 *954:B 0.000423631
21 *173:12 *982:B1 1.70396e-05
22 *173:12 *1010:B 0.000237243
23 *173:18 *982:A1 2.14816e-05
24 *173:18 *184:33 2.92051e-05
25 *173:60 *175:16 4.66108e-05
26 *173:60 *175:153 8.41307e-05
27 *173:60 *188:63 1.70272e-05
28 *173:60 *188:71 0.000106382
29 *173:60 *193:22 0.0001288
30 *904:A *1011:B 4.7259e-05
31 *904:B *173:12 0
32 *921:B *173:12 1.86475e-05
33 *922:A *1014:A2 1.12261e-05
34 *922:A *173:18 2.68824e-05
35 *925:A *1011:B 0.000652053
36 *939:C1 *173:12 6.8333e-05
37 *949:B *173:60 9.39388e-06
38 *951:B *173:60 0.0001288
39 *963:B *1011:B 3.85753e-05
40 *991:A *1011:B 0.000863215
41 *991:A *1017:A2 0.000102269
42 *1011:A *1011:B 8.52883e-05
43 *1016:A *1011:B 6.73985e-05
44 *1016:A *1017:A2 0.000380376
45 *1017:B1 *1017:A2 0.00016451
46 *1055:RESET_B *1011:B 0.000135425
47 *1068:D *1017:A2 0.000378463
48 *1069:RESET_B *173:60 8.73147e-06
49 *1074:RESET_B *1011:B 0.000431861
50 *1079:D *1017:A2 1.31561e-05
51 *1079:RESET_B *1011:B 0
52 *1079:RESET_B *173:18 0.00044726
53 *1082:RESET_B *1015:A2 2.10214e-05
54 *1082:RESET_B *173:60 0.000202156
55 *1083:RESET_B *1017:A2 0.000164556
56 *86:51 *1011:B 2.98855e-05
57 *95:21 *173:12 0.000168448
58 *117:47 *1011:B 0.000113124
59 *126:47 *173:12 0
60 *126:47 *173:18 0.000170812
61 *126:47 *173:60 5.8403e-05
62 *133:34 *1015:A2 6.9442e-05
63 *133:34 *173:60 2.44338e-05
64 *168:26 *1011:B 0.000154286
*RES
1 *1010:Y *173:12 13.94 
2 *173:12 *173:18 14.7425 
3 *173:18 *1017:A2 9.60637 
4 *173:18 *1014:A2 4.0875 
5 *173:12 *173:60 11.755 
6 *173:60 *1011:B 29.4058 
7 *173:60 *1015:A2 3.1 
*END

*D_NET *174 0.00195787
*CONN
*I *1013:A I *D sky130_fd_sc_hd__buf_1
*I *1012:X O *D sky130_fd_sc_hd__or3_1
*CAP
1 *1013:A 0.000312767
2 *1012:X 0.000312767
3 *1013:A *903:A 0.000159285
4 *1013:A *958:A 0.000375793
5 *1013:A *196:18 0.00016093
6 *1013:A *208:8 4.11718e-05
7 *20:58 *1013:A 0.00059516
*RES
1 *1012:X *1013:A 17.19 
*END

*D_NET *175 0.0349251
*CONN
*I *1021:A I *D sky130_fd_sc_hd__inv_2
*I *1020:A I *D sky130_fd_sc_hd__inv_2
*I *1026:A I *D sky130_fd_sc_hd__inv_2
*I *1022:A I *D sky130_fd_sc_hd__inv_2
*I *1019:A I *D sky130_fd_sc_hd__inv_2
*I *1025:A I *D sky130_fd_sc_hd__inv_2
*I *1027:A I *D sky130_fd_sc_hd__inv_2
*I *1023:A I *D sky130_fd_sc_hd__inv_2
*I *1024:A I *D sky130_fd_sc_hd__inv_2
*I *1028:A I *D sky130_fd_sc_hd__inv_2
*I *1018:X O *D sky130_fd_sc_hd__buf_4
*CAP
1 *1021:A 0
2 *1020:A 2.04709e-05
3 *1026:A 4.66487e-05
4 *1022:A 1.92999e-05
5 *1019:A 0.000336144
6 *1025:A 0.000929311
7 *1027:A 0.000456798
8 *1023:A 0.000327746
9 *1024:A 8.69224e-06
10 *1028:A 0.000858329
11 *1018:X 0
12 *175:159 0.00058328
13 *175:153 0.00124944
14 *175:103 0.000814291
15 *175:80 0.0022174
16 *175:63 0.00148012
17 *175:50 0.00113232
18 *175:16 0.00253052
19 *175:4 0.00178629
20 *1019:A *927:A 0
21 *1019:A *977:A 1.93765e-05
22 *1024:A *222:16 7.49727e-06
23 *1028:A *995:A 0.00107613
24 *1028:A *1100:A 0.00021964
25 *1028:A *184:10 1.61694e-05
26 *1028:A *184:16 6.16226e-06
27 *175:16 *1014:B1_N 0.000158556
28 *175:16 *1018:A 8.23457e-05
29 *175:16 *184:16 0.000168035
30 *175:16 *184:33 0.0010385
31 *175:16 *204:8 0.000127095
32 *175:16 *215:40 0.00110974
33 *175:50 *177:22 0.000582686
34 *175:63 *889:C 7.5173e-05
35 *175:80 *908:D 0.000112816
36 *175:80 *911:C1 9.52091e-05
37 *175:80 *916:B 0.000624925
38 *175:80 *1032:A 0
39 *175:80 *1045:A 0
40 *175:103 *180:49 0.00015896
41 *175:103 *215:18 5.78377e-05
42 *175:153 *193:22 8.78121e-05
43 *175:153 *203:48 0.000156758
44 *175:159 *1000:A1 5.85963e-05
45 *175:159 *1037:A 0.000381832
46 *175:159 *1097:A 0
47 *908:C *1025:A 9.50299e-05
48 *912:A2 *175:80 4.71037e-05
49 *927:B *1019:A 0.000113797
50 *939:A1 *175:16 0.000110629
51 *948:A *175:63 8.77251e-05
52 *948:A *175:80 0.000266765
53 *963:B *175:153 0.000415169
54 *981:A2 *1019:A 8.22764e-05
55 *982:A4 *1028:A 0.00021097
56 *982:A4 *175:50 0.000415564
57 *984:B *1025:A 0.000132555
58 *1000:C1 *175:153 0.000219818
59 *1003:B *1027:A 0.00103759
60 *1011:B *175:153 5.69618e-05
61 *1017:B1 *1028:A 9.12494e-06
62 *1017:B1 *175:50 0.00120166
63 *1055:RESET_B *175:159 1.88602e-05
64 *1057:RESET_B *1023:A 0.000305049
65 *1057:RESET_B *175:63 9.77293e-05
66 *1059:RESET_B *1025:A 6.11525e-06
67 *1061:D *175:16 7.61681e-05
68 *1062:RESET_B *1028:A 1.07285e-05
69 *1065:RESET_B *1019:A 0.000438693
70 *1065:RESET_B *175:103 4.91997e-05
71 *1068:D *175:16 0.00164183
72 *1070:RESET_B *175:153 6.57653e-06
73 *1070:RESET_B *175:159 0.000455883
74 *1073:RESET_B *1020:A 1.42674e-05
75 *1073:RESET_B *1026:A 3.112e-05
76 *1073:RESET_B *175:159 0.000500044
77 *1075:D *1019:A 1.01661e-05
78 *1075:D *1022:A 4.66108e-05
79 *1075:D *175:103 0.000382076
80 *1076:RESET_B *1019:A 4.20634e-05
81 *1077:RESET_B *1025:A 0.000315901
82 *1077:RESET_B *175:103 0.000185505
83 *1082:RESET_B *175:16 0.000314521
84 *20:22 *175:16 0.0004105
85 *20:195 *1019:A 2.11552e-05
86 *22:16 *175:63 0
87 *22:16 *175:80 0.000185243
88 *37:12 *175:63 0.000131944
89 *48:22 *1019:A 0.000319237
90 *48:22 *175:103 0.000110939
91 *49:24 *1020:A 6.72833e-06
92 *51:26 *1022:A 3.64998e-06
93 *62:26 *1027:A 7.18832e-05
94 *62:26 *175:80 0.00045432
95 *71:22 *1019:A 0.000274763
96 *87:65 *175:50 0.000512276
97 *119:47 *175:153 3.02087e-05
98 *126:47 *175:16 1.79483e-05
99 *133:34 *175:16 7.76661e-05
100 *133:34 *175:153 4.30228e-05
101 *146:78 *175:50 0.000340896
102 *146:80 *175:50 0.000247205
103 *148:41 *1019:A 0.000100528
104 *154:44 *1025:A 5.33075e-05
105 *154:44 *175:80 0.000110785
106 *166:29 *175:153 1.17409e-05
107 *166:69 *175:153 0.000587631
108 *173:60 *175:16 4.66108e-05
109 *173:60 *175:153 8.41307e-05
*RES
1 *1018:X *175:4 1.6 
2 *175:4 *175:16 19.7092 
3 *175:16 *1028:A 16.89 
4 *175:16 *1024:A 3.735 
5 *175:16 *175:50 23.405 
6 *175:50 *1023:A 7.225 
7 *175:50 *175:63 6.23 
8 *175:63 *1027:A 13.365 
9 *175:63 *175:80 23.57 
10 *175:80 *1025:A 13.36 
11 *175:80 *175:103 13.615 
12 *175:103 *1019:A 17 
13 *175:103 *1022:A 2.05 
14 *175:4 *175:153 23.99 
15 *175:153 *175:159 18.64 
16 *175:159 *1026:A 2.395 
17 *175:159 *1020:A 2.05 
18 *175:153 *1021:A 1.6 
*END

*D_NET *176 0.0412148
*CONN
*I *1033:A I *D sky130_fd_sc_hd__inv_2
*I *1030:A I *D sky130_fd_sc_hd__inv_2
*I *1038:A I *D sky130_fd_sc_hd__inv_2
*I *1039:A I *D sky130_fd_sc_hd__inv_2
*I *1035:A I *D sky130_fd_sc_hd__inv_2
*I *1036:A I *D sky130_fd_sc_hd__inv_2
*I *1032:A I *D sky130_fd_sc_hd__inv_2
*I *1037:A I *D sky130_fd_sc_hd__inv_2
*I *1031:A I *D sky130_fd_sc_hd__inv_2
*I *1034:A I *D sky130_fd_sc_hd__inv_2
*I *1029:X O *D sky130_fd_sc_hd__clkbuf_8
*CAP
1 *1033:A 5.76281e-05
2 *1030:A 0.000217668
3 *1038:A 0.000580695
4 *1039:A 0.000140346
5 *1035:A 0.000210751
6 *1036:A 0
7 *1032:A 0.000945656
8 *1037:A 0.00120358
9 *1031:A 1.34902e-05
10 *1034:A 0.00028353
11 *1029:X 0.000142503
12 *176:141 0.00108056
13 *176:135 0.000970308
14 *176:118 0.00176344
15 *176:89 0.00128612
16 *176:82 0.000211713
17 *176:61 0.00159694
18 *176:16 0.000451015
19 *176:14 0.00148725
20 *176:6 0.000794504
21 *1030:A *966:A 2.99518e-06
22 *1030:A *981:B2 6.62421e-05
23 *1030:A *983:A 7.08049e-05
24 *1030:A *182:85 4.66108e-05
25 *1032:A *1045:A 0.000682189
26 *1032:A *193:30 6.61627e-05
27 *1032:A *212:29 0.000638154
28 *1032:A *212:37 6.90475e-05
29 *1032:A *215:18 0.000120655
30 *1033:A *966:A 0.000110673
31 *1033:A *187:45 6.1357e-05
32 *1034:A *945:B 0.00041761
33 *1034:A *995:A 1.08758e-05
34 *1035:A *201:40 6.85246e-05
35 *1037:A *980:B 6.26111e-05
36 *1037:A *995:A 0.000600611
37 *1037:A *1097:A 0
38 *1037:A *219:16 0.00255823
39 *1038:A *983:A 2.30292e-05
40 *1038:A *1065:CLK 0.000463214
41 *1039:A *899:A2 0.00019329
42 *1039:A *931:B1 6.3499e-05
43 *1039:A *941:A 0.000230435
44 *1039:A *214:62 4.9968e-05
45 *176:14 *1004:B1 0.000154353
46 *176:16 *995:A 0.000594713
47 *176:61 *188:22 0.0011014
48 *176:61 *215:22 0.000934506
49 *176:61 *215:32 2.85364e-05
50 *176:82 *193:30 0.000305777
51 *176:89 *193:30 0.000286499
52 *176:118 *178:8 4.82863e-05
53 *176:118 *192:61 0.000269353
54 *176:118 *193:30 0.000220656
55 *176:135 *931:B1 0.000375977
56 *176:135 *966:A 0.000193017
57 *176:141 *966:B 0.000486494
58 *176:141 *981:B2 0
59 *891:B *1038:A 4.95182e-05
60 *895:A2 *1038:A 2.47045e-05
61 *895:C1 *1038:A 0.000182563
62 *899:B1 *176:118 4.77719e-05
63 *899:B1 *176:135 0.000625342
64 *909:A2 *1032:A 1.91597e-05
65 *909:A2 *176:82 0.000137039
66 *909:A2 *176:89 0.000297916
67 *909:A2 *176:118 0.00022786
68 *909:B1 *1032:A 4.66108e-05
69 *911:A1 *1032:A 0.000144594
70 *911:A2 *1032:A 0.000314114
71 *911:B1 *1032:A 6.54361e-06
72 *930:A *1030:A 4.66108e-05
73 *930:A *1038:A 0.000133627
74 *930:A *176:141 0.000607657
75 *936:B *176:135 6.32638e-05
76 *941:B *176:118 0.000422281
77 *955:A *1032:A 0.00121715
78 *960:B *1032:A 0.000828187
79 *961:B *1037:A 0.00209258
80 *972:A1 *176:118 0.000296755
81 *980:C *1034:A 9.02174e-05
82 *980:C *1037:A 7.86796e-05
83 *980:C *176:16 0.000158046
84 *981:A1 *1038:A 0.00012905
85 *981:C1 *1030:A 0.000153976
86 *995:B *1037:A 0.000553728
87 *995:B *176:16 0.000301011
88 *1054:D *1033:A 0.000229541
89 *1054:D *176:135 0.000192125
90 *1056:D *1035:A 4.66108e-05
91 *1062:D *176:6 0.000195377
92 *1062:D *176:14 6.33103e-05
93 *1065:RESET_B *1032:A 3.1835e-05
94 *1068:RESET_B *1035:A 6.69608e-06
95 *1070:D *176:118 0.000112067
96 *1070:RESET_B *1037:A 0.000529594
97 *1070:RESET_B *176:118 1.72409e-05
98 *1071:D *176:141 0
99 *1072:D *1038:A 0.000845368
100 *1075:RESET_B *1032:A 6.03468e-05
101 *1084:RESET_B *1035:A 9.05592e-05
102 *1086:A *176:118 0.000191975
103 *35:10 *1032:A 0
104 *71:22 *1038:A 4.21973e-05
105 *84:39 *176:118 0.000661914
106 *87:65 *1032:A 1.52776e-05
107 *94:10 *1034:A 0.000279334
108 *97:14 *1032:A 0.00029854
109 *97:14 *176:6 0.000121815
110 *97:14 *176:61 0
111 *97:14 *176:82 0.000196669
112 *102:14 *1032:A 8.41703e-06
113 *112:18 *1035:A 0.000211004
114 *112:39 *1035:A 0.000271531
115 *119:47 *1039:A 0.000173699
116 *119:47 *176:135 0.000878362
117 *133:60 *176:14 0.000153004
118 *142:18 *176:135 3.09456e-05
119 *142:18 *176:141 1.81185e-05
120 *159:24 *176:118 0.000190309
121 *162:34 *1035:A 0.000109782
122 *168:26 *1035:A 0.000148799
123 *175:80 *1032:A 0
124 *175:159 *1037:A 0.000381832
*RES
1 *1029:X *176:6 4.81 
2 *176:6 *176:14 7.03 
3 *176:14 *176:16 5.625 
4 *176:16 *1034:A 8.725 
5 *176:16 *1031:A 1.96 
6 *176:14 *1037:A 43.7 
7 *176:6 *176:61 19.195 
8 *176:61 *1032:A 36.41 
9 *176:61 *176:82 4.71 
10 *176:82 *1036:A 1.6 
11 *176:82 *176:89 2.865 
12 *176:89 *1035:A 12.02 
13 *176:89 *176:118 29.43 
14 *176:118 *1039:A 7.92 
15 *176:118 *176:135 20.51 
16 *176:135 *176:141 11.755 
17 *176:141 *1038:A 20.66 
18 *176:141 *1030:A 10.115 
19 *176:135 *1033:A 3.775 
*END

*D_NET *177 0.0352105
*CONN
*I *1041:A I *D sky130_fd_sc_hd__inv_2
*I *1050:A I *D sky130_fd_sc_hd__inv_2
*I *1043:A I *D sky130_fd_sc_hd__inv_2
*I *1042:A I *D sky130_fd_sc_hd__inv_2
*I *1044:A I *D sky130_fd_sc_hd__inv_2
*I *1047:A I *D sky130_fd_sc_hd__inv_2
*I *1048:A I *D sky130_fd_sc_hd__inv_2
*I *1049:A I *D sky130_fd_sc_hd__inv_2
*I *1045:A I *D sky130_fd_sc_hd__inv_2
*I *1046:A I *D sky130_fd_sc_hd__inv_2
*I *1040:X O *D sky130_fd_sc_hd__buf_4
*CAP
1 *1041:A 0
2 *1050:A 0.000795247
3 *1043:A 0.000161683
4 *1042:A 0.000180777
5 *1044:A 0.000492015
6 *1047:A 0
7 *1048:A 4.5339e-05
8 *1049:A 3.57388e-05
9 *1045:A 0.000353057
10 *1046:A 0.00029201
11 *1040:X 0
12 *177:123 0.00118367
13 *177:117 0.000775153
14 *177:89 0.00101419
15 *177:80 0.00186148
16 *177:61 0.00164332
17 *177:57 0.00110404
18 *177:22 0.0028711
19 *177:12 0.00325808
20 *177:4 0.00147405
21 *1045:A *911:C1 0
22 *1050:A *1015:A1 8.7152e-06
23 *1050:A *1099:A 0.000120407
24 *177:12 *190:20 0.000488058
25 *177:12 *193:22 0
26 *177:22 *908:A_N 0.000332686
27 *177:57 *181:44 0.000633397
28 *177:57 *207:18 0.000819709
29 *177:61 *1000:A1 0.000136606
30 *177:80 *920:A2 1.00941e-05
31 *177:80 *1000:A1 0.000476961
32 *177:80 *205:12 0.000153208
33 *177:89 *989:A 0.000290298
34 *177:117 *207:18 0.00011686
35 *177:123 *900:A 8.53113e-06
36 *177:123 *919:B 0.000171158
37 seg[0] *177:80 2.33678e-05
38 *904:A *1050:A 2.60673e-05
39 *904:A *177:12 0.000109541
40 *921:C *177:117 0.000244356
41 *925:A *1042:A 0
42 *948:A *177:22 1.91824e-05
43 *951:C *177:61 0
44 *951:C *177:80 0
45 *960:B *1046:A 5.83121e-06
46 *960:B *177:22 8.33691e-05
47 *963:C *177:57 8.91775e-05
48 *967:B *1050:A 7.27402e-06
49 *980:C *177:22 7.41888e-05
50 *1002:A *177:117 0.000569247
51 *1002:B *1043:A 0.000267067
52 *1002:B *177:123 0.000274685
53 *1009:C1 *177:117 4.66108e-05
54 *1009:C1 *177:123 0.00018955
55 *1011:B *1042:A 0
56 *1015:A2 *1050:A 4.07562e-05
57 *1015:B1 *1050:A 8.7152e-06
58 *1032:A *1045:A 0.000682189
59 *1057:D *177:57 0.000440279
60 *1057:D *177:117 0.000478299
61 *1058:D *177:80 0.000316024
62 *1058:RESET_B *177:22 4.25242e-05
63 *1062:D *177:22 0.00109834
64 *1065:D *1050:A 7.80775e-05
65 *1068:D *1050:A 0.000688873
66 *1070:RESET_B *177:57 3.80022e-05
67 *1074:RESET_B *1050:A 0.00133712
68 *1075:RESET_B *1043:A 0
69 *1075:RESET_B *177:123 0
70 *1078:RESET_B *1046:A 0.000107112
71 *1079:RESET_B *177:80 0.000675224
72 *1080:D *177:117 3.74161e-05
73 *1080:D *177:123 0.00018955
74 *1080:RESET_B *1048:A 4.41506e-05
75 *1082:RESET_B *1050:A 3.09774e-05
76 *21:16 *1042:A 0.000352977
77 *21:16 *177:80 0.000560403
78 *21:16 *177:89 0.000918716
79 *87:65 *1045:A 6.37837e-05
80 *87:65 *177:22 0.000482052
81 *91:27 *177:80 9.40994e-05
82 *93:50 *177:22 0.00034953
83 *97:14 *177:12 0.000188887
84 *97:14 *177:22 4.82329e-05
85 *102:51 *177:80 1.79008e-05
86 *117:10 *1048:A 0.000119756
87 *133:34 *1050:A 2.71803e-05
88 *146:72 *177:22 0.0015367
89 *146:78 *177:22 4.79946e-05
90 *166:14 *177:123 0.000148785
91 *175:50 *177:22 0.000582686
92 *175:80 *1045:A 0
*RES
1 *1040:X *177:4 1.6 
2 *177:4 *177:12 16.525 
3 *177:12 *177:22 46.57 
4 *177:22 *1046:A 6.19 
5 *177:22 *1045:A 13.865 
6 *177:12 *1049:A 2.215 
7 *177:4 *177:57 16.12 
8 *177:57 *177:61 3.635 
9 *177:61 *1048:A 4.74 
10 *177:61 *177:80 17.0793 
11 *177:80 *1047:A 3.6 
12 *177:80 *177:89 10.56 
13 *177:89 *1044:A 9.915 
14 *177:89 *1042:A 7.785 
15 *177:57 *177:117 15.775 
16 *177:117 *177:123 8.9075 
17 *177:123 *1043:A 6.8925 
18 *177:123 *1050:A 9.5931 
19 *177:117 *1041:A 1.6 
*END

*D_NET *178 0.0105308
*CONN
*I *1090:A I *D sky130_fd_sc_hd__clkbuf_16
*I *1088:A I *D sky130_fd_sc_hd__clkbuf_16
*I *1087:A I *D sky130_fd_sc_hd__clkbuf_16
*I *1089:A I *D sky130_fd_sc_hd__clkbuf_16
*I *1086:X O *D sky130_fd_sc_hd__clkbuf_16
*CAP
1 *1090:A 0.000471716
2 *1088:A 0.000500007
3 *1087:A 0
4 *1089:A 0.000224593
5 *1086:X 9.73191e-06
6 *178:33 0.00152198
7 *178:14 0.00153621
8 *178:8 0.000771086
9 *1088:A *912:B1_N 0.000774144
10 *1088:A *201:40 0.000137049
11 *1089:A *185:43 0.000383021
12 *1090:A *898:A1 8.53113e-06
13 *1090:A *905:B 3.50959e-05
14 *1090:A *905:D 0.000156641
15 *1090:A *907:B 0.000188949
16 *1090:A *1001:A 0.000128335
17 *1090:A *192:86 0.000304532
18 *1090:A *203:48 0.00015498
19 *1090:A *208:34 7.48995e-05
20 *178:14 *905:B 2.04724e-05
21 *178:14 *905:C 0.000131996
22 *178:14 *905:D 0.00021406
23 *178:14 *190:14 0.000150249
24 *178:33 *912:B1_N 0.000165393
25 *899:B1 *1090:A 4.96505e-05
26 *941:B *178:14 0.000131881
27 *960:C *1090:A 0.00041304
28 *976:A *1088:A 2.92603e-05
29 *1084:RESET_B *1090:A 7.10899e-05
30 *20:129 *178:14 0.000114049
31 *51:26 *1088:A 0.000900909
32 *51:26 *178:33 1.92979e-05
33 *84:39 *178:8 4.82863e-05
34 *91:27 *178:33 0.000376616
35 *95:32 *178:14 1.23082e-05
36 *162:34 *1088:A 0.000240998
37 *162:34 *178:33 1.1477e-05
38 *176:118 *178:8 4.82863e-05
*RES
1 *1086:X *178:8 4.05 
2 *178:8 *178:14 7.035 
3 *178:14 *1089:A 7.5 
4 *178:14 *178:33 3.13503 
5 *178:33 *1087:A 3.6 
6 *178:33 *1088:A 18.24 
7 *178:8 *1090:A 16.575 
*END

*D_NET *179 0.00944388
*CONN
*I *1091:A I *D sky130_fd_sc_hd__bufinv_16
*I *1053:CLK I *D sky130_fd_sc_hd__dfrtp_4
*I *1073:CLK I *D sky130_fd_sc_hd__dfrtp_2
*I *1062:CLK I *D sky130_fd_sc_hd__dfrtp_2
*I *1079:CLK I *D sky130_fd_sc_hd__dfrtp_2
*I *1074:CLK I *D sky130_fd_sc_hd__dfrtp_2
*I *1082:CLK I *D sky130_fd_sc_hd__dfrtp_4
*I *1087:X O *D sky130_fd_sc_hd__clkbuf_16
*CAP
1 *1091:A 3.27112e-05
2 *1053:CLK 9.64141e-05
3 *1073:CLK 0.000517685
4 *1062:CLK 0
5 *1079:CLK 9.81861e-05
6 *1074:CLK 0.0001012
7 *1082:CLK 0.000142829
8 *1087:X 9.98703e-05
9 *179:35 0.000320955
10 *179:22 0.000505784
11 *179:18 0.000357368
12 *179:16 0.000706697
13 *179:14 0.000283713
14 *179:10 0.000246851
15 *1053:CLK *958:A 9.6443e-05
16 *1074:CLK *889:A 4.31789e-05
17 *179:10 *889:C 6.33103e-05
18 *179:14 *889:A 8.33066e-06
19 *179:16 *889:A 0.000191763
20 *179:18 *889:A 0.00034489
21 *179:22 *889:A 0.000678586
22 *179:35 *889:A 4.27883e-06
23 *897:B *1073:CLK 0.00010163
24 *897:B *1091:A 0.000119247
25 *1003:A *1053:CLK 6.53002e-05
26 *1016:A *1082:CLK 2.21074e-05
27 *1016:A *179:35 8.06242e-05
28 *1056:D *1091:A 0.000118081
29 *1057:RESET_B *179:10 0.000118081
30 *1064:RESET_B *179:10 8.04434e-05
31 *1064:RESET_B *179:14 4.67901e-06
32 *1073:D *1073:CLK 0.000469111
33 *1079:D *1079:CLK 0.000227323
34 *1079:D *179:35 0.000131219
35 *1082:D *1082:CLK 0.000523677
36 *1082:D *179:14 0.000146532
37 *1082:D *179:16 0.000184273
38 *1082:D *179:18 0.000337525
39 *1082:D *179:22 0.000678586
40 *1082:RESET_B *1082:CLK 0.000313881
41 *1082:RESET_B *179:35 8.54281e-05
42 *20:58 *1053:CLK 8.23042e-05
43 *48:22 *179:10 0.00012972
44 *48:22 *179:14 8.44684e-05
45 *84:12 *1074:CLK 0
46 *133:14 *1074:CLK 9.02098e-05
47 *133:14 *179:35 6.67851e-05
48 *133:60 *1073:CLK 0.000232214
49 *133:60 *179:35 9.387e-06
*RES
1 *1087:X *179:10 6.375 
2 *179:10 *179:14 2.595 
3 *179:14 *179:16 2.4 
4 *179:16 *179:18 4.185 
5 *179:18 *179:22 10.265 
6 *179:22 *1082:CLK 6.88 
7 *179:22 *179:35 5.375 
8 *179:35 *1074:CLK 5.745 
9 *179:35 *1079:CLK 5.73375 
10 *179:18 *1062:CLK 3.6 
11 *179:16 *1073:CLK 13.71 
12 *179:14 *1053:CLK 6.12 
13 *179:10 *1091:A 4.74 
*END

*D_NET *180 0.0107832
*CONN
*I *1061:CLK I *D sky130_fd_sc_hd__dfrtp_1
*I *1077:CLK I *D sky130_fd_sc_hd__dfrtp_1
*I *1076:CLK I *D sky130_fd_sc_hd__dfrtp_2
*I *1075:CLK I *D sky130_fd_sc_hd__dfrtp_2
*I *1081:CLK I *D sky130_fd_sc_hd__dfrtp_4
*I *1064:CLK I *D sky130_fd_sc_hd__dfrtp_4
*I *1055:CLK I *D sky130_fd_sc_hd__dfrtp_4
*I *1092:A I *D sky130_fd_sc_hd__clkinv_2
*I *1088:X O *D sky130_fd_sc_hd__clkbuf_16
*CAP
1 *1061:CLK 0.000533046
2 *1077:CLK 0.000109284
3 *1076:CLK 0.000245927
4 *1075:CLK 0
5 *1081:CLK 0.0003965
6 *1064:CLK 0.000189996
7 *1055:CLK 0.000297971
8 *1092:A 2.89741e-05
9 *1088:X 0
10 *180:49 0.000484821
11 *180:45 0.000527877
12 *180:43 0.000365931
13 *180:32 0.000318805
14 *180:21 0.000455017
15 *180:10 0.000345468
16 *180:4 0.000758284
17 *1055:CLK *916:B 0.000409315
18 *1055:CLK *198:33 7.51951e-05
19 *1061:CLK *188:22 0
20 *1061:CLK *194:31 0.000123955
21 *1077:CLK *907:A_N 0.000229021
22 *1077:CLK *907:B 4.77719e-05
23 *1081:CLK *183:24 0.000339286
24 *1081:CLK *200:8 4.66108e-05
25 *180:43 *907:B 2.25299e-05
26 *180:45 *907:B 1.52705e-05
27 *912:A1 *180:45 0
28 *955:A *1055:CLK 0.000416466
29 *956:C *1055:CLK 0.000192489
30 *960:B *1061:CLK 0.000196742
31 *960:B *1092:A 2.49909e-05
32 *960:B *180:10 0.00026476
33 *976:A *1061:CLK 4.04004e-05
34 *981:A2 *1076:CLK 4.4067e-05
35 *1007:A *1076:CLK 6.63219e-06
36 *1063:D *1061:CLK 1.88602e-05
37 *1065:RESET_B *1076:CLK 0
38 *1075:D *1081:CLK 7.22354e-05
39 *1075:D *180:49 2.16833e-05
40 *1076:D *1076:CLK 2.75229e-05
41 *1077:RESET_B *1077:CLK 9.96764e-05
42 *1079:D *1076:CLK 0.000101789
43 *1081:D *1081:CLK 7.35729e-05
44 *48:22 *1076:CLK 0.000222123
45 *48:22 *180:10 7.13722e-05
46 *48:22 *180:21 0.000317731
47 *48:22 *180:32 0.000187016
48 *48:22 *180:43 0.000145473
49 *48:22 *180:45 0.000339432
50 *51:26 *1061:CLK 0
51 *148:41 *1061:CLK 0.000382212
52 *148:41 *1076:CLK 1.58335e-05
53 *148:41 *180:45 0
54 *154:44 *1064:CLK 0.000200148
55 *155:39 *1061:CLK 7.31181e-05
56 *165:12 *180:10 6.97124e-05
57 *165:12 *180:21 0.000326263
58 *165:12 *180:32 0.000195346
59 *165:12 *180:43 0.000109743
60 *175:103 *180:49 0.00015896
*RES
1 *1088:X *180:4 1.6 
2 *180:4 *180:10 5.39 
3 *180:10 *1092:A 4.05 
4 *180:10 *180:21 3.93 
5 *180:21 *1055:CLK 11.295 
6 *180:21 *180:32 2.4 
7 *180:32 *1064:CLK 7.155 
8 *180:32 *180:43 1.89 
9 *180:43 *180:45 4.185 
10 *180:45 *180:49 3.83 
11 *180:49 *1081:CLK 10.33 
12 *180:49 *1075:CLK 1.6 
13 *180:45 *1076:CLK 8.79 
14 *180:43 *1077:CLK 6.225 
15 *180:4 *1061:CLK 15.155 
*END

*D_NET *181 0.0208015
*CONN
*I *1080:CLK I *D sky130_fd_sc_hd__dfrtp_1
*I *1059:CLK I *D sky130_fd_sc_hd__dfrtp_1
*I *1066:CLK I *D sky130_fd_sc_hd__dfrtp_1
*I *1056:CLK I *D sky130_fd_sc_hd__dfrtp_2
*I *1093:A I *D sky130_fd_sc_hd__clkbuf_4
*I *1058:CLK I *D sky130_fd_sc_hd__dfrtp_2
*I *1057:CLK I *D sky130_fd_sc_hd__dfrtp_1
*I *1078:CLK I *D sky130_fd_sc_hd__dfrtp_4
*I *1069:CLK I *D sky130_fd_sc_hd__dfrtp_1
*I *1068:CLK I *D sky130_fd_sc_hd__dfrtp_2
*I *1089:X O *D sky130_fd_sc_hd__clkbuf_16
*CAP
1 *1080:CLK 0.000545346
2 *1059:CLK 0
3 *1066:CLK 3.20773e-05
4 *1056:CLK 9.96351e-05
5 *1093:A 0.000279579
6 *1058:CLK 0
7 *1057:CLK 0
8 *1078:CLK 0.000469705
9 *1069:CLK 0
10 *1068:CLK 0.000392382
11 *1089:X 2.91559e-05
12 *181:100 0.000869093
13 *181:92 0.0015206
14 *181:82 0.00141709
15 *181:44 0.000734071
16 *181:20 0.000811907
17 *181:18 0.000856619
18 *181:12 0.000235723
19 *181:10 0.000385584
20 *181:8 0.000160689
21 *1056:CLK *183:61 0.000133491
22 *1056:CLK *183:77 0.000151254
23 *1056:CLK *196:18 0.000276592
24 *1066:CLK *938:A 2.49909e-05
25 *1066:CLK *183:61 6.73445e-05
26 *1066:CLK *196:18 4.87939e-05
27 *1068:CLK *954:B 0
28 *1068:CLK *192:18 5.0096e-05
29 *1078:CLK *1010:B 0.000670186
30 *1078:CLK *207:18 0.000148062
31 *1078:CLK *214:43 5.83121e-06
32 *1080:CLK *915:A 4.12775e-05
33 *1080:CLK *915:B 0.000305077
34 *1093:A *899:A2 4.43212e-05
35 *1093:A *932:B 0.000101482
36 *1093:A *192:57 0.00026102
37 *1093:A *206:18 0.000158541
38 *1093:A *208:93 4.8854e-05
39 *181:8 *206:18 8.23457e-05
40 *181:10 *209:24 0.000100907
41 *181:10 *214:62 0.000108871
42 *181:12 *209:24 0.000210596
43 *181:12 *214:62 0.000219721
44 *181:18 *903:C 5.84554e-05
45 *181:18 *192:57 3.26185e-05
46 *181:18 *209:24 0.000134263
47 *181:18 *214:62 0.000155366
48 *181:20 *191:43 4.2062e-05
49 *181:20 *192:18 0.000162694
50 *181:20 *192:57 0.000468063
51 *181:44 *1040:A 0.000265741
52 *181:44 *203:48 8.35106e-05
53 *181:44 *207:18 4.97434e-05
54 *181:82 *209:24 0.00018343
55 *181:82 *214:62 0.000190459
56 *181:92 *209:18 0.000110377
57 *181:100 *941:A 1.6974e-05
58 *181:100 *183:61 0.000207132
59 *181:100 *190:8 6.81824e-05
60 *914:B *1093:A 4.89295e-05
61 *914:B *181:8 4.41506e-05
62 *917:A *1080:CLK 0.000460173
63 *917:A *181:92 0.000198677
64 *921:A *1068:CLK 0.000385464
65 *921:C *1068:CLK 0.000364225
66 *928:B *1093:A 4.77719e-05
67 *929:C *1093:A 0.000161467
68 *961:B *181:20 7.06865e-05
69 *963:B *181:18 4.76303e-05
70 *963:B *181:20 0.000652973
71 *989:B *1080:CLK 2.49909e-05
72 *990:A *1080:CLK 5.78755e-05
73 *990:A *181:92 0.000109322
74 *990:C *1080:CLK 7.95314e-05
75 *1002:B *1068:CLK 6.81888e-05
76 *1006:B *1078:CLK 0.000671535
77 *1057:D *1078:CLK 6.33932e-05
78 *1057:D *181:44 0.000548572
79 *1062:D *1066:CLK 1.28996e-05
80 *1066:RESET_B *181:92 5.57087e-05
81 *1066:RESET_B *181:100 0.000203376
82 *1068:RESET_B *1068:CLK 0.000646549
83 *1073:RESET_B *1093:A 2.62017e-05
84 *1075:RESET_B *1068:CLK 0.000122821
85 *1080:RESET_B *1080:CLK 4.41506e-05
86 *103:38 *181:92 2.05258e-05
87 *119:47 *1068:CLK 1.64141e-05
88 *119:47 *181:18 4.14009e-05
89 *119:47 *181:20 0.000195094
90 *137:31 *181:18 0.000110584
91 *137:31 *181:20 0.000238825
92 *177:57 *181:44 0.000633397
*RES
1 *1089:X *181:8 4.395 
2 *181:8 *181:10 1.38 
3 *181:10 *181:12 2.655 
4 *181:12 *181:18 4.485 
5 *181:18 *181:20 12.6 
6 *181:20 *1068:CLK 16.395 
7 *181:20 *1069:CLK 3.6 
8 *181:18 *181:44 11.765 
9 *181:44 *1078:CLK 17.765 
10 *181:44 *1057:CLK 1.6 
11 *181:12 *1058:CLK 3.6 
12 *181:10 *1093:A 10.26 
13 *181:8 *181:82 4.4 
14 *181:82 *181:92 10.515 
15 *181:92 *181:100 12.14 
16 *181:100 *1056:CLK 7.02 
17 *181:100 *1066:CLK 4.665 
18 *181:92 *1059:CLK 1.6 
19 *181:82 *1080:CLK 12.4 
*END

*D_NET *182 0.0164128
*CONN
*I *1065:CLK I *D sky130_fd_sc_hd__dfrtp_2
*I *1063:CLK I *D sky130_fd_sc_hd__dfrtp_2
*I *1060:CLK I *D sky130_fd_sc_hd__dfrtp_2
*I *1083:CLK I *D sky130_fd_sc_hd__dfrtp_4
*I *1084:CLK I *D sky130_fd_sc_hd__dfrtp_4
*I *1054:CLK I *D sky130_fd_sc_hd__dfrtp_4
*I *1072:CLK I *D sky130_fd_sc_hd__dfrtp_4
*I *1070:CLK I *D sky130_fd_sc_hd__dfrtp_4
*I *1071:CLK I *D sky130_fd_sc_hd__dfrtp_4
*I *1067:CLK I *D sky130_fd_sc_hd__dfrtp_4
*I *1090:X O *D sky130_fd_sc_hd__clkbuf_16
*CAP
1 *1065:CLK 0.00025946
2 *1063:CLK 5.49963e-05
3 *1060:CLK 0.000344086
4 *1083:CLK 0
5 *1084:CLK 0
6 *1054:CLK 0.0002687
7 *1072:CLK 0.000164864
8 *1070:CLK 0.000417194
9 *1071:CLK 9.45251e-05
10 *1067:CLK 8.36265e-05
11 *1090:X 0
12 *182:85 0.000649061
13 *182:81 0.000594602
14 *182:72 0.000344295
15 *182:36 0.000671019
16 *182:34 0.000357661
17 *182:32 0.00021511
18 *182:28 0.000621131
19 *182:17 0.000292284
20 *182:4 0.000134495
21 *1054:CLK *966:A 0.000269916
22 *1054:CLK *187:45 0.000427162
23 *1054:CLK *189:63 0.000169849
24 *1060:CLK *902:C 0.000613953
25 *1060:CLK *902:D 1.17666e-05
26 *1060:CLK *910:B 0
27 *1060:CLK *983:B 0.000142492
28 *1067:CLK *191:22 4.80285e-05
29 *1070:CLK *189:63 0.000992471
30 *1071:CLK *214:72 2.49909e-05
31 *1072:CLK *198:37 0.000560521
32 *182:17 *214:72 9.17974e-05
33 *182:36 *189:63 0.000148799
34 *182:85 *966:B 0.000119762
35 *895:B1 *1063:CLK 0.000184866
36 *895:B1 *182:85 0.000456569
37 *966:C *182:72 0.000113344
38 *966:C *182:81 6.93342e-05
39 *966:C *182:85 0.000214831
40 *971:A *1060:CLK 0
41 *1030:A *182:85 4.66108e-05
42 *1038:A *1065:CLK 0.000463214
43 *1054:D *1054:CLK 0.00039939
44 *1059:RESET_B *1070:CLK 0.000153333
45 *1060:D *1071:CLK 0.000150569
46 *1063:RESET_B *1063:CLK 0.000302981
47 *1063:RESET_B *182:85 0.000198939
48 *1067:D *1067:CLK 0.000180776
49 *1070:D *1070:CLK 0.000698334
50 *1071:D *1065:CLK 5.06382e-06
51 *1071:D *1071:CLK 8.71841e-05
52 *1071:D *182:17 1.3376e-05
53 *1071:D *182:28 6.9451e-05
54 *1072:D *1065:CLK 0.000266784
55 *49:24 *1072:CLK 0.000204793
56 *71:22 *1065:CLK 0.000982146
57 *71:22 *182:28 5.51624e-05
58 *71:22 *182:72 0.000264375
59 *71:22 *182:81 9.46109e-05
60 *85:16 *1054:CLK 0
61 *86:43 *1054:CLK 9.71141e-05
62 *93:10 *1060:CLK 0.000117175
63 *102:51 *1054:CLK 0
64 *112:117 *182:32 0.000446813
65 *112:117 *182:36 3.73962e-05
66 *142:18 *182:85 0.000120655
67 *158:20 *1070:CLK 0
68 *167:20 *182:17 0.000134243
69 *167:20 *182:28 0.000308128
70 *167:20 *182:72 0.000286576
*RES
1 *1090:X *182:4 1.6 
2 *182:4 *1067:CLK 3.7 
3 *182:4 *182:17 3.635 
4 *182:17 *1071:CLK 6.12 
5 *182:17 *182:28 3.93 
6 *182:28 *182:32 6.245 
7 *182:32 *182:34 2 
8 *182:34 *182:36 1.89 
9 *182:36 *1070:CLK 15.945 
10 *182:36 *1072:CLK 8.88 
11 *182:34 *1054:CLK 12.405 
12 *182:32 *1084:CLK 1.6 
13 *182:28 *182:72 6.48 
14 *182:72 *1083:CLK 3.6 
15 *182:72 *182:81 2.145 
16 *182:81 *182:85 10.385 
17 *182:85 *1060:CLK 13.865 
18 *182:85 *1063:CLK 4.465 
19 *182:81 *1065:CLK 13.875 
*END

*D_NET *183 0.0340337
*CONN
*I *892:C I *D sky130_fd_sc_hd__nor3_2
*I *889:C I *D sky130_fd_sc_hd__and3_1
*I *1012:C I *D sky130_fd_sc_hd__or3_1
*I *899:A2 I *D sky130_fd_sc_hd__o21a_1
*I *896:A2 I *D sky130_fd_sc_hd__a21oi_1
*I *1015:A1 I *D sky130_fd_sc_hd__a21oi_1
*I *898:A2 I *D sky130_fd_sc_hd__a21oi_1
*I *1081:Q O *D sky130_fd_sc_hd__dfrtp_4
*CAP
1 *892:C 8.71187e-05
2 *889:C 0.00145172
3 *1012:C 0
4 *899:A2 0.000940213
5 *896:A2 4.32436e-05
6 *1015:A1 0.000519126
7 *898:A2 0.000212276
8 *1081:Q 0.00226031
9 *183:128 0.00145172
10 *183:81 0.000718279
11 *183:77 0.00172009
12 *183:61 0.00160778
13 *183:28 0.00161627
14 *183:24 0.00276761
15 *889:C *889:A 6.99162e-05
16 *889:C *995:A 0.000835747
17 *889:C *222:16 0
18 *892:C *893:A 0.000526196
19 *898:A2 *898:A1 0.00015755
20 *899:A2 *932:B 0.000218585
21 *899:A2 *941:A 0.000370943
22 *899:A2 *983:D 8.49205e-05
23 *899:A2 *187:47 8.25609e-05
24 *899:A2 *191:43 0.000499444
25 *899:A2 *198:43 0.000157602
26 *899:A2 *208:93 8.52883e-05
27 *1015:A1 *903:C 0.000449297
28 *183:24 *893:A 0.000195064
29 *183:24 *953:B1 3.82018e-05
30 *183:24 *200:35 0.000109729
31 *183:28 *970:A 1.88602e-05
32 *183:61 *938:A 7.55581e-05
33 *183:61 *208:34 0.00100957
34 *183:77 *896:B1 0.000259794
35 *183:77 *928:A 3.50152e-06
36 *183:77 *184:66 8.53224e-05
37 *183:77 *196:18 1.06042e-05
38 *183:77 *206:18 0.000444456
39 *183:81 *208:93 0.000110471
40 *891:B *183:24 0.000258434
41 *904:A *1015:A1 0.00099893
42 *904:A *183:81 4.97933e-05
43 *906:D *1015:A1 0
44 *932:C *183:81 0
45 *933:A *183:24 7.08455e-05
46 *937:A *183:61 1.91597e-05
47 *942:A *183:28 3.63701e-06
48 *942:A *183:61 0.000122262
49 *942:B *183:24 3.1562e-06
50 *942:B *183:28 6.72143e-05
51 *943:A *898:A2 6.90254e-05
52 *943:A *183:28 0.000666657
53 *947:A *889:C 0.000695684
54 *947:C *183:77 0.000206162
55 *948:A *889:C 0.000215785
56 *953:A2 *892:C 0.000535294
57 *953:A2 *183:24 0.00019391
58 *956:B *898:A2 3.72081e-05
59 *956:B *183:28 0.000245902
60 *959:B *1015:A1 0
61 *960:B *898:A2 3.91176e-06
62 *967:B *1015:A1 0.000232649
63 *972:A1 *183:61 5.18003e-05
64 *994:A1 *183:28 4.91346e-05
65 *994:B1 *183:24 3.12494e-05
66 *995:B *889:C 0
67 *997:A *889:C 7.10861e-05
68 *1015:B1 *1015:A1 5.02126e-06
69 *1039:A *899:A2 0.00019329
70 *1050:A *1015:A1 8.7152e-06
71 *1056:CLK *183:61 0.000133491
72 *1056:CLK *183:77 0.000151254
73 *1056:D *183:77 8.82805e-05
74 *1057:RESET_B *889:C 0.000404269
75 *1058:RESET_B *889:C 0.000450498
76 *1062:D *183:61 0.000146937
77 *1062:D *183:77 0.000173125
78 *1066:CLK *183:61 6.73445e-05
79 *1068:RESET_B *183:77 4.77769e-05
80 *1073:RESET_B *899:A2 0.000446813
81 *1073:RESET_B *183:77 0.000493676
82 *1075:D *183:24 0.000643389
83 *1081:CLK *183:24 0.000339286
84 *1081:D *183:24 4.39205e-05
85 *1081:RESET_B *183:24 3.59637e-05
86 *1084:RESET_B *889:C 0.000154982
87 *1093:A *899:A2 4.43212e-05
88 *20:129 *183:61 0.00070843
89 *35:10 *183:24 0
90 *37:12 *889:C 0.000711427
91 *51:26 *889:C 9.68322e-05
92 *87:32 *183:24 7.59573e-06
93 *87:44 *183:28 8.70967e-05
94 *93:40 *183:61 0.000665491
95 *103:52 *1015:A1 0
96 *103:52 *183:81 0.000169215
97 *118:38 *183:28 0.000189068
98 *137:31 *899:A2 0.000502489
99 *146:72 *889:C 0.000166148
100 *162:34 *183:28 0
101 *168:26 *889:C 0.000118081
102 *175:63 *889:C 7.5173e-05
103 *179:10 *889:C 6.33103e-05
104 *181:100 *183:61 0.000207132
*RES
1 *1081:Q *183:24 40.035 
2 *183:24 *183:28 12.815 
3 *183:28 *898:A2 6.915 
4 *183:28 *183:61 31.685 
5 *183:61 *183:77 18.995 
6 *183:77 *183:81 5.5475 
7 *183:81 *1015:A1 16.5225 
8 *183:81 *896:A2 4.2825 
9 *183:77 *899:A2 30.795 
10 *183:61 *183:128 2 
11 *183:128 *1012:C 1.6 
12 *183:128 *889:C 43.52 
13 *183:24 *892:C 6.535 
*END

*D_NET *184 0.0207955
*CONN
*I *1017:A1 I *D sky130_fd_sc_hd__a21oi_1
*I *896:B1 I *D sky130_fd_sc_hd__a21oi_1
*I *892:B I *D sky130_fd_sc_hd__nor3_2
*I *1014:A1 I *D sky130_fd_sc_hd__a21boi_1
*I *889:B I *D sky130_fd_sc_hd__and3_1
*I *1082:Q O *D sky130_fd_sc_hd__dfrtp_4
*CAP
1 *1017:A1 0
2 *896:B1 0.000655201
3 *892:B 0.00130352
4 *1014:A1 5.98508e-05
5 *889:B 7.50588e-05
6 *1082:Q 0.000343775
7 *184:66 0.00324374
8 *184:33 0.00186279
9 *184:16 0.000701166
10 *184:10 0.000451971
11 *889:B *982:A3 0.000158898
12 *889:B *995:A 0.000137564
13 *889:B *222:16 0
14 *892:B *892:A 5.77339e-05
15 *892:B *186:18 4.7692e-05
16 *892:B *196:89 0.000448981
17 *892:B *197:64 0.000283281
18 *892:B *199:41 4.12303e-05
19 *892:B *208:34 0.000482565
20 *896:B1 *190:14 0.000163642
21 *896:B1 *190:20 0.000109845
22 *1014:A1 *215:40 0.000158543
23 *184:33 *982:A1 1.7635e-05
24 *184:66 *903:A 0.000379874
25 *184:66 *1010:A 0.000122583
26 *184:66 *195:73 0.000335215
27 *184:66 *196:18 0.000410067
28 *918:A *896:B1 0.000559539
29 *918:A *184:66 6.1807e-05
30 *922:A *184:33 0
31 *922:A *184:66 0
32 *939:A1 *184:16 0.000150359
33 *939:A1 *184:33 0.000551723
34 *972:A1 *892:B 0.000707733
35 *986:B *184:33 7.42438e-05
36 *986:B *184:66 0.000110368
37 *991:A *184:66 0.000766917
38 *1006:B *892:B 0.00117788
39 *1007:A *892:B 0.000126381
40 *1014:A2 *184:33 2.53191e-06
41 *1014:A2 *184:66 8.69417e-06
42 *1016:A *184:10 0.00038685
43 *1017:A2 *184:10 0.000165617
44 *1017:B1 *184:10 5.1985e-06
45 *1028:A *184:10 1.61694e-05
46 *1028:A *184:16 6.16226e-06
47 *1062:RESET_B *184:10 0.000210297
48 *1062:RESET_B *184:16 1.97486e-05
49 *1068:D *184:16 5.84568e-05
50 *1069:D *892:B 0.000856683
51 *1073:RESET_B *896:B1 0.000119762
52 *1078:RESET_B *184:66 0.000152015
53 *1081:RESET_B *184:66 1.92979e-05
54 *1082:RESET_B *1014:A1 9.00258e-05
55 *1082:RESET_B *184:10 7.95544e-05
56 *1083:RESET_B *184:33 5.75488e-05
57 *20:50 *896:B1 8.65224e-05
58 *20:82 *896:B1 5.59034e-05
59 *62:26 *892:B 7.87237e-05
60 *101:18 *892:B 4.12303e-05
61 *117:47 *892:B 2.37183e-05
62 *146:138 *892:B 0.000138794
63 *148:10 *184:66 1.88904e-05
64 *168:26 *184:66 0.0001769
65 *173:18 *184:33 2.92051e-05
66 *175:16 *184:16 0.000168035
67 *175:16 *184:33 0.0010385
68 *183:77 *896:B1 0.000259794
69 *183:77 *184:66 8.53224e-05
*RES
1 *1082:Q *184:10 12.57 
2 *184:10 *184:16 1.17837 
3 *184:16 *889:B 6.1175 
4 *184:16 *184:33 4.95197 
5 *184:33 *1014:A1 5.445 
6 *184:33 *184:66 27.2983 
7 *184:66 *892:B 30.1598 
8 *184:66 *896:B1 17.855 
9 *184:10 *1017:A1 3.6 
*END

*D_NET *185 0.0224996
*CONN
*I *894:A I *D sky130_fd_sc_hd__nor2_1
*I *890:A I *D sky130_fd_sc_hd__and2_1
*I *1010:B I *D sky130_fd_sc_hd__nor2_2
*I *1012:B I *D sky130_fd_sc_hd__or3_1
*I *893:A I *D sky130_fd_sc_hd__and2_1
*I *1083:Q O *D sky130_fd_sc_hd__dfrtp_4
*CAP
1 *894:A 0.00109504
2 *890:A 0
3 *1010:B 0.00108967
4 *1012:B 0.000456995
5 *893:A 0.000719022
6 *1083:Q 1.99436e-05
7 *185:43 0.00209566
8 *185:27 0.0013881
9 *185:19 0.00246694
10 *185:6 0.00127176
11 *893:A *199:60 6.00111e-05
12 *894:A *931:B1 3.83194e-05
13 *894:A *983:A 0
14 *894:A *199:60 0.00127224
15 *1010:B *982:B1 0.000895867
16 *1010:B *1010:A 4.82919e-05
17 *1010:B *197:41 0.000203472
18 *1010:B *214:43 7.06865e-05
19 *1012:B *903:A 7.35184e-05
20 *1012:B *1010:A 8.73147e-06
21 *1012:B *1012:A 1.91597e-05
22 *1012:B *186:18 7.85696e-05
23 *1012:B *208:34 1.81029e-05
24 *185:6 *199:60 9.03508e-06
25 *185:19 *199:60 0.00040106
26 *185:27 *941:A 0.000302096
27 *185:27 *1001:A 8.73147e-06
28 *185:27 *189:33 0
29 *185:27 *189:63 3.79555e-05
30 *185:27 *192:57 0.000155497
31 *185:43 *940:A 4.66108e-05
32 *185:43 *941:A 4.66108e-05
33 *185:43 *203:48 0
34 *890:B *185:43 9.50342e-06
35 *892:C *893:A 0.000526196
36 *914:B *185:43 8.41384e-05
37 *942:A *1012:B 8.33066e-06
38 *942:B *893:A 0.000230009
39 *953:A2 *893:A 0.00054669
40 *953:A2 *185:27 1.51915e-05
41 *966:C *185:27 0.0010989
42 *970:C *185:27 0.00164878
43 *1006:B *1010:B 0.000531216
44 *1056:RESET_B *1012:B 2.79424e-05
45 *1059:RESET_B *185:43 0.000133163
46 *1063:D *894:A 7.47284e-05
47 *1078:CLK *1010:B 0.000670186
48 *1084:RESET_B *1012:B 0.00019312
49 *1089:A *185:43 0.000383021
50 *51:26 *1012:B 4.66108e-05
51 *96:12 *185:27 7.83179e-05
52 *96:12 *185:43 2.49909e-05
53 *103:38 *185:43 3.43604e-05
54 *103:52 *185:43 9.58021e-05
55 *159:24 *1012:B 9.55262e-06
56 *159:24 *185:43 0.000849671
57 *167:20 *185:27 0.000349205
58 *173:12 *1010:B 0.000237243
59 *183:24 *893:A 0.000195064
*RES
1 *1083:Q *185:6 1.96 
2 *185:6 *893:A 15.175 
3 *185:6 *185:19 7.02 
4 *185:19 *185:27 28.9 
5 *185:27 *185:43 17.5 
6 *185:43 *1012:B 11.885 
7 *185:43 *1010:B 31.955 
8 *185:27 *890:A 1.6 
9 *185:19 *894:A 20.03 
*END

*D_NET *186 0.0138698
*CONN
*I *892:A I *D sky130_fd_sc_hd__nor3_2
*I *891:A I *D sky130_fd_sc_hd__xor2_1
*I *1010:A I *D sky130_fd_sc_hd__nor2_2
*I *1012:A I *D sky130_fd_sc_hd__or3_1
*I *1084:Q O *D sky130_fd_sc_hd__dfrtp_4
*CAP
1 *892:A 7.18184e-05
2 *891:A 0.000465147
3 *1010:A 0.00111894
4 *1012:A 6.81283e-05
5 *1084:Q 1.33986e-05
6 *186:40 0.000752188
7 *186:18 0.00203927
8 *186:8 0.00108082
9 *891:A *912:B1_N 1.56428e-05
10 *891:A *970:A 0.000676651
11 *891:A *188:102 2.71113e-05
12 *1010:A *903:A 0
13 *1010:A *903:B 1.83114e-05
14 *1010:A *903:D 0.000176646
15 *1010:A *982:A2 4.50633e-05
16 *1010:A *982:B1 3.00381e-05
17 *1010:A *208:34 0.000298736
18 *186:18 *940:A 0.000125963
19 *186:18 *192:86 1.13262e-05
20 *186:18 *197:41 0.000212852
21 *186:18 *212:37 2.96342e-05
22 *186:40 *192:86 3.59196e-05
23 *892:B *892:A 5.77339e-05
24 *892:B *186:18 4.7692e-05
25 *942:A *891:A 0.000456912
26 *953:A2 *891:A 4.8854e-05
27 *972:A1 *186:18 0.000129072
28 *972:A2 *186:18 0.00031477
29 *972:B1 *186:18 2.14282e-05
30 *972:B1 *186:40 2.73222e-05
31 *1006:B *1010:A 2.90867e-05
32 *1006:B *186:18 0.000971257
33 *1006:C *1010:A 0.00110966
34 *1010:B *1010:A 4.82919e-05
35 *1012:B *1010:A 8.73147e-06
36 *1012:B *1012:A 1.91597e-05
37 *1012:B *186:18 7.85696e-05
38 *1056:RESET_B *1010:A 0.000109534
39 *1069:D *892:A 2.90124e-05
40 *1069:D *186:40 0.000311604
41 *1072:D *186:40 0
42 *1079:RESET_B *1010:A 0.00015125
43 *1084:D *891:A 0.000156765
44 *1084:D *186:8 1.99477e-05
45 *1084:RESET_B *1012:A 4.21579e-05
46 *20:22 *1010:A 0.000386861
47 *20:152 *186:8 4.77757e-05
48 *20:152 *186:18 0.000287328
49 *51:26 *1012:A 0.000268153
50 *86:43 *892:A 0.000149176
51 *86:43 *186:40 0.000140585
52 *103:14 *891:A 1.15125e-05
53 *103:113 *1010:A 1.03503e-05
54 *146:138 *186:18 0.00035524
55 *154:26 *891:A 0.000183029
56 *159:24 *1012:A 0.000231802
57 *159:24 *186:18 0.000153816
58 *162:8 *891:A 1.91597e-05
59 *184:66 *1010:A 0.000122583
*RES
1 *1084:Q *186:8 4.05 
2 *186:8 *186:18 24.545 
3 *186:18 *1012:A 4.465 
4 *186:18 *1010:A 30.635 
5 *186:8 *186:40 4.695 
6 *186:40 *891:A 15.36 
7 *186:40 *892:A 5.49 
*END

*D_NET *187 0.0280369
*CONN
*I *902:D I *D sky130_fd_sc_hd__and4_4
*I *915:B I *D sky130_fd_sc_hd__nand2_1
*I *914:A I *D sky130_fd_sc_hd__nor2_1
*I *920:A2 I *D sky130_fd_sc_hd__a21o_1
*I *923:A3 I *D sky130_fd_sc_hd__a31o_1
*I *919:C I *D sky130_fd_sc_hd__nand3_1
*I *916:B I *D sky130_fd_sc_hd__or2_1
*I *1054:Q O *D sky130_fd_sc_hd__dfrtp_4
*CAP
1 *902:D 0.000226221
2 *915:B 8.84395e-05
3 *914:A 3.45073e-05
4 *920:A2 0.000189454
5 *923:A3 7.28618e-05
6 *919:C 0.000448768
7 *916:B 0.00157084
8 *1054:Q 0
9 *187:79 0.000522654
10 *187:55 0.000665126
11 *187:49 0.000507294
12 *187:47 0.000896769
13 *187:45 0.00288171
14 *187:4 0.00348311
15 *902:D *902:B 7.9968e-05
16 *902:D *902:C 0.000527461
17 *902:D *910:B 0
18 *902:D *195:12 4.50935e-05
19 *915:B *915:A 0.00019637
20 *916:B *911:C1 0.000470962
21 *916:B *912:B1_N 0
22 *916:B *1004:A1 1.88602e-05
23 *916:B *198:33 0.000227821
24 *916:B *202:24 4.66108e-05
25 *919:C *902:A 3.98155e-05
26 *919:C *919:A 0.00113695
27 *919:C *206:20 2.85623e-05
28 *919:C *206:22 0.000201739
29 *919:C *207:18 0.000104402
30 *920:A2 *213:14 2.59783e-05
31 *923:A3 *923:A1 0.000328142
32 *923:A3 *198:62 0.000340804
33 *187:45 *966:A 0.00102957
34 *187:45 *202:24 0.000161033
35 *187:47 *902:B 0.000238428
36 *187:47 *902:C 0.000166061
37 *187:47 *195:12 8.24912e-05
38 *187:47 *198:43 6.23083e-05
39 *187:47 *198:45 5.06382e-06
40 *187:49 *198:45 5.06286e-05
41 *187:55 *919:B 2.53191e-06
42 *187:55 *923:A1 4.66108e-05
43 *187:55 *198:45 5.98573e-05
44 *187:55 *198:62 0.000118081
45 seg[0] *920:A2 9.58678e-06
46 *899:A2 *187:47 8.25609e-05
47 *909:B1 *916:B 0.00041078
48 *914:B *187:79 0.000920597
49 *945:C *916:B 0.000385726
50 *948:A *916:B 8.65961e-05
51 *968:A *916:B 6.07575e-06
52 *999:B *187:47 8.05681e-05
53 *1002:A *919:C 0.000956352
54 *1008:B2 *187:55 8.7152e-06
55 *1011:A *187:47 6.11912e-05
56 *1033:A *187:45 6.1357e-05
57 *1054:CLK *187:45 0.000427162
58 *1054:D *187:45 0.00018327
59 *1055:CLK *916:B 0.000409315
60 *1055:RESET_B *916:B 0.000113828
61 *1060:CLK *902:D 1.17666e-05
62 *1060:D *187:47 0.000261932
63 *1063:RESET_B *902:D 4.82919e-05
64 *1066:RESET_B *187:45 8.23457e-05
65 *1067:D *916:B 0.000638014
66 *1077:D *916:B 0.000161938
67 *1079:RESET_B *920:A2 0.000163634
68 *1080:CLK *915:B 0.000305077
69 *21:16 *187:79 4.89395e-05
70 *91:27 *187:55 1.88602e-05
71 *93:50 *916:B 0.000688291
72 *101:18 *902:D 0.000181798
73 *102:51 *920:A2 0.000455904
74 *118:38 *916:B 3.75937e-05
75 *118:38 *187:45 0.000106829
76 *146:12 *187:47 0.000313464
77 *155:18 *916:B 0.000119242
78 *159:10 *187:79 0.000669543
79 *162:34 *916:B 0.000338916
80 *166:8 *187:47 0.000696178
81 *166:8 *187:49 0.000153065
82 *166:8 *187:55 0.000192653
83 *167:43 *919:C 7.3917e-05
84 *175:80 *916:B 0.000624925
85 *177:80 *920:A2 1.00941e-05
*RES
1 *1054:Q *187:4 1.6 
2 *187:4 *916:B 46.455 
3 *187:4 *187:45 30.755 
4 *187:45 *187:47 19.995 
5 *187:47 *187:49 1.89 
6 *187:49 *187:55 5.54 
7 *187:55 *919:C 21.77 
8 *187:55 *923:A3 4.81 
9 *187:49 *187:79 11.345 
10 *187:79 *920:A2 11.57 
11 *187:79 *914:A 2.05 
12 *187:47 *915:B 6.465 
13 *187:45 *902:D 10.275 
*END

*D_NET *188 0.0261335
*CONN
*I *970:A I *D sky130_fd_sc_hd__and4_1
*I *953:A1 I *D sky130_fd_sc_hd__a21o_1
*I *949:A I *D sky130_fd_sc_hd__or2_1
*I *906:A I *D sky130_fd_sc_hd__or4_1
*I *950:A I *D sky130_fd_sc_hd__nand2_1
*I *954:A I *D sky130_fd_sc_hd__and3_2
*I *1064:Q O *D sky130_fd_sc_hd__dfrtp_4
*CAP
1 *970:A 0.00112314
2 *953:A1 0
3 *949:A 1.98664e-05
4 *906:A 6.92588e-05
5 *950:A 0.000238644
6 *954:A 0.000292711
7 *1064:Q 0
8 *188:102 0.00149603
9 *188:71 0.000945692
10 *188:63 0.00112176
11 *188:28 0.00103861
12 *188:22 0.00215933
13 *188:6 0.00225042
14 *906:A *965:A1 0.000188845
15 *949:A *979:A 0.00015007
16 *950:A *219:16 0.00103481
17 *954:A *982:A1 0.000111006
18 *954:A *982:B1 0.000123589
19 *970:A *934:A 0.000237085
20 *970:A *953:B1 8.27415e-05
21 *970:A *200:35 0.000231762
22 *188:22 *912:B1_N 7.70946e-05
23 *188:22 *1004:B1 0.000115076
24 *188:22 *193:30 0.000213716
25 *188:22 *215:32 0.000452121
26 *188:63 *979:A 0.000891152
27 *188:63 *982:A1 0.000193129
28 *188:71 *954:B 8.08747e-05
29 *188:71 *965:A1 0.000483523
30 *188:71 *193:22 9.18707e-05
31 *188:102 *912:B1_N 8.23457e-05
32 *891:A *970:A 0.000676651
33 *891:A *188:102 2.71113e-05
34 *912:A1 *188:22 0.000500643
35 *922:A *188:63 0.0001382
36 *939:A2 *188:63 8.09455e-05
37 *939:A2 *188:71 0.000159177
38 *939:C1 *188:63 9.09748e-05
39 *950:B *950:A 0.00103481
40 *953:A2 *970:A 0.000231377
41 *953:A2 *188:102 4.93142e-05
42 *954:C *954:A 0
43 *957:A *906:A 0.000196335
44 *957:A *188:71 0.000649678
45 *960:B *188:22 0.000271074
46 *976:A *188:22 3.59531e-06
47 *986:B *188:22 0
48 *986:B *188:28 6.60368e-05
49 *994:B1 *970:A 6.65747e-05
50 *997:A *188:28 0.000151698
51 *997:A *188:63 8.03295e-05
52 *1016:A *188:22 8.20907e-05
53 *1061:CLK *188:22 0
54 *1061:D *188:63 4.89395e-05
55 *1063:D *188:22 0
56 *1069:RESET_B *949:A 0.000123969
57 *1069:RESET_B *188:71 0.000412768
58 *1074:D *188:22 0.000269536
59 *1074:D *188:28 0
60 *1074:RESET_B *188:63 8.86977e-05
61 *1084:D *188:102 0.00017051
62 *51:26 *188:22 0.000276222
63 *51:26 *188:102 0
64 *87:44 *970:A 1.7635e-05
65 *91:27 *188:22 0.000132871
66 *103:24 *188:22 0.000298898
67 *103:24 *188:102 0.000311305
68 *118:38 *970:A 1.2973e-05
69 *126:47 *954:A 0
70 *126:47 *188:63 0.00105997
71 *133:60 *188:22 0.000800607
72 *148:41 *188:22 0
73 *154:26 *970:A 0.000661255
74 *162:34 *970:A 5.07376e-05
75 *173:60 *188:63 1.70272e-05
76 *173:60 *188:71 0.000106382
77 *176:61 *188:22 0.0011014
78 *183:28 *970:A 1.88602e-05
*RES
1 *1064:Q *188:6 3.6 
2 *188:6 *188:22 48.5875 
3 *188:22 *188:28 7.0475 
4 *188:28 *954:A 10.04 
5 *188:28 *188:63 20.32 
6 *188:63 *188:71 18.665 
7 *188:71 *950:A 13.365 
8 *188:71 *906:A 6 
9 *188:63 *949:A 3.085 
10 *188:6 *188:102 8.45 
11 *188:102 *953:A1 1.6 
12 *188:102 *970:A 24.1476 
*END

*D_NET *189 0.0218381
*CONN
*I *970:B I *D sky130_fd_sc_hd__and4_1
*I *906:B I *D sky130_fd_sc_hd__or4_1
*I *954:B I *D sky130_fd_sc_hd__and3_2
*I *953:B1 I *D sky130_fd_sc_hd__a21o_1
*I *1065:Q O *D sky130_fd_sc_hd__dfrtp_2
*CAP
1 *970:B 0
2 *906:B 0
3 *954:B 0.00266953
4 *953:B1 0.00029828
5 *1065:Q 0.000250819
6 *189:63 0.00459592
7 *189:33 0.00279723
8 *189:10 0.00141995
9 *953:B1 *201:40 3.92756e-05
10 *954:B *965:A1 0.000606834
11 *954:B *965:A2 0.000109157
12 *954:B *982:A1 2.01504e-05
13 *954:B *982:B1 0.000388491
14 *954:B *192:18 0
15 *189:10 *901:A1 1.34298e-05
16 *189:10 *983:A 0
17 *189:33 *910:C 0.00097936
18 *189:33 *931:A1 1.51837e-05
19 *189:33 *195:22 0.000567884
20 *189:33 *195:28 3.46689e-05
21 *189:63 *906:C 1.08732e-05
22 *189:63 *912:B1_N 4.83308e-05
23 *189:63 *932:B 0.000380719
24 *189:63 *965:A1 9.24916e-05
25 *189:63 *1001:A 0
26 *189:63 *191:43 2.40904e-05
27 *189:63 *191:69 5.74829e-05
28 *189:63 *192:57 0.000402154
29 *189:63 *205:12 7.10991e-06
30 *890:B *189:63 1.88904e-05
31 *893:B *953:B1 0.000639352
32 *893:B *189:10 4.61701e-06
33 *893:B *189:33 0.000113633
34 *904:A *954:B 0
35 *906:D *189:63 0.00068819
36 *917:A *189:63 0.000275789
37 *953:A2 *189:33 0
38 *957:A *189:63 7.74001e-05
39 *959:B *954:B 0.000118044
40 *959:B *189:63 1.13346e-05
41 *960:C *189:63 0
42 *966:C *189:33 0
43 *970:A *953:B1 8.27415e-05
44 *970:C *189:63 1.71207e-05
45 *986:B *954:B 0.000122797
46 *989:B *189:63 8.10867e-05
47 *990:A *189:63 5.92535e-05
48 *994:B1 *953:B1 2.30526e-05
49 *1054:CLK *189:63 0.000169849
50 *1059:RESET_B *189:63 0.000326897
51 *1068:CLK *954:B 0
52 *1069:D *954:B 6.63219e-06
53 *1070:CLK *189:63 0.000992471
54 *1070:D *189:63 0.000129188
55 *20:175 *953:B1 0.000559669
56 *20:175 *189:33 0.000171656
57 *80:18 *189:63 0.000124324
58 *84:39 *189:63 0.000110499
59 *85:16 *189:33 0
60 *85:16 *189:63 0
61 *86:43 *189:63 3.28414e-05
62 *87:32 *953:B1 1.74805e-05
63 *93:108 *189:63 0
64 *103:38 *189:63 0
65 *118:38 *953:B1 7.39008e-05
66 *126:97 *189:63 0
67 *133:34 *954:B 9.17423e-05
68 *159:24 *189:10 0
69 *167:20 *189:63 0.000138758
70 *173:12 *954:B 0.000423631
71 *182:36 *189:63 0.000148799
72 *183:24 *953:B1 3.82018e-05
73 *185:27 *189:33 0
74 *185:27 *189:63 3.79555e-05
75 *188:71 *954:B 8.08747e-05
*RES
1 *1065:Q *189:10 7.3925 
2 *189:10 *953:B1 7.59777 
3 *189:10 *189:33 6.0533 
4 *189:33 *189:63 42.7307 
5 *189:63 *954:B 42.525 
6 *189:63 *906:B 3.6 
7 *189:33 *970:B 3.6 
*END

*D_NET *190 0.0134456
*CONN
*I *905:C I *D sky130_fd_sc_hd__and4_1
*I *958:A I *D sky130_fd_sc_hd__nor2_1
*I *959:A I *D sky130_fd_sc_hd__and2_1
*I *965:A1 I *D sky130_fd_sc_hd__a31o_1
*I *1066:Q O *D sky130_fd_sc_hd__dfrtp_1
*CAP
1 *905:C 0.000102149
2 *958:A 0.00240533
3 *959:A 7.46661e-05
4 *965:A1 0.000293823
5 *1066:Q 9.07915e-05
6 *190:20 0.000931618
7 *190:14 0.00327889
8 *190:8 0.000503365
9 *905:C *905:D 4.76263e-05
10 *905:C *193:22 4.66108e-05
11 *958:A *889:A 0.000194567
12 *958:A *208:8 8.73389e-06
13 *958:A *214:43 0.00028839
14 *965:A1 *965:B1 4.77807e-05
15 *965:A1 *1097:A 1.42598e-05
16 *965:A1 *1099:A 4.60061e-05
17 *190:14 *220:10 8.33066e-06
18 *190:20 *906:C 4.7003e-05
19 *190:20 *220:10 0.000414574
20 *896:B1 *190:14 0.000163642
21 *896:B1 *190:20 0.000109845
22 *906:A *965:A1 0.000188845
23 *952:A *958:A 0.000106095
24 *954:B *965:A1 0.000606834
25 *957:A *965:A1 9.387e-06
26 *959:B *959:A 0.000173103
27 *959:B *190:20 0.000153816
28 *1003:A *958:A 3.20802e-05
29 *1013:A *958:A 0.000375793
30 *1053:CLK *958:A 9.6443e-05
31 *1069:RESET_B *190:14 3.19851e-05
32 *1072:RESET_B *905:C 2.49909e-05
33 *1073:RESET_B *190:14 8.77232e-05
34 *1078:RESET_B *958:A 0.000117513
35 *1084:RESET_B *905:C 0.000212888
36 *1084:RESET_B *190:14 9.10613e-05
37 *20:50 *190:20 0.000102662
38 *20:58 *958:A 9.03589e-05
39 *20:82 *190:14 2.62189e-05
40 *20:129 *190:14 2.50805e-05
41 *35:10 *958:A 5.1985e-06
42 *97:14 *959:A 3.59784e-05
43 *97:14 *190:20 0.00031635
44 *137:8 *959:A 2.65814e-06
45 *177:12 *190:20 0.000488058
46 *178:14 *905:C 0.000131996
47 *178:14 *190:14 0.000150249
48 *181:100 *190:8 6.81824e-05
49 *188:71 *965:A1 0.000483523
50 *189:63 *965:A1 9.24916e-05
*RES
1 *1066:Q *190:8 4.74 
2 *190:8 *190:14 6.78 
3 *190:14 *190:20 15.935 
4 *190:20 *965:A1 14.915 
5 *190:20 *959:A 3.445 
6 *190:14 *958:A 36.34 
7 *190:8 *905:C 6.705 
*END

*D_NET *191 0.028066
*CONN
*I *966:B I *D sky130_fd_sc_hd__nand3_1
*I *907:B I *D sky130_fd_sc_hd__and4b_1
*I *905:D I *D sky130_fd_sc_hd__and4_1
*I *965:A2 I *D sky130_fd_sc_hd__a31o_1
*I *961:A I *D sky130_fd_sc_hd__or2_1
*I *962:A I *D sky130_fd_sc_hd__nand2_1
*I *1067:Q O *D sky130_fd_sc_hd__dfrtp_4
*CAP
1 *966:B 0.000485962
2 *907:B 0.00114779
3 *905:D 0.000190768
4 *965:A2 0.000101622
5 *961:A 0.00147657
6 *962:A 5.66051e-05
7 *1067:Q 0.000579271
8 *191:69 0.00161381
9 *191:43 0.00253377
10 *191:33 0.00134586
11 *191:22 0.000610383
12 *191:8 0.00150398
13 *905:D *193:22 4.66108e-05
14 *905:D *203:48 0.000288349
15 *907:B *907:A_N 2.01565e-05
16 *907:B *1004:B1 0.000155642
17 *907:B *203:48 0.000196785
18 *961:A *203:48 0.000135342
19 *191:22 *931:B1 0.000157002
20 *191:22 *214:72 0.000189713
21 *191:33 *214:72 0.00037161
22 *191:43 *192:57 0.000237733
23 *191:43 *214:72 0.000283981
24 *191:69 *194:31 0.000995839
25 *899:A2 *191:43 0.000499444
26 *905:C *905:D 4.76263e-05
27 *912:A1 *907:B 0.000642018
28 *917:A *191:43 0.000386554
29 *924:C *962:A 0.000229021
30 *924:C *191:22 0.000108886
31 *930:A *966:B 0.000320687
32 *943:A *191:69 0.00015755
33 *948:A *907:B 0.000270093
34 *954:B *965:A2 0.000109157
35 *957:A *191:43 0.000971221
36 *959:B *965:A2 0.000211918
37 *961:B *191:43 7.23602e-05
38 *963:B *961:A 0.000452153
39 *963:B *191:43 0.000217876
40 *964:A *907:B 4.12094e-05
41 *966:C *966:B 4.66108e-05
42 *967:A *907:B 0.000446491
43 *968:A *907:B 0.00104836
44 *989:B *191:69 0.000345492
45 *990:A *191:43 5.8023e-05
46 *999:B *191:22 1.91597e-05
47 *1060:RESET_B *966:B 3.27181e-06
48 *1067:CLK *191:22 4.80285e-05
49 *1067:D *191:22 4.13557e-05
50 *1077:CLK *907:B 4.77719e-05
51 *1077:RESET_B *907:B 0.00019558
52 *1078:D *961:A 6.78079e-05
53 *1084:RESET_B *905:D 1.32517e-05
54 *1090:A *905:D 0.000156641
55 *1090:A *907:B 0.000188949
56 *48:22 *907:B 1.44839e-05
57 *51:26 *907:B 0.000179744
58 *133:34 *965:A2 8.7152e-06
59 *137:31 *962:A 7.23635e-05
60 *137:31 *191:22 0.000109652
61 *137:31 *191:43 0.00069433
62 *137:33 *962:A 0.000156658
63 *142:18 *966:B 0.00110929
64 *162:34 *907:B 5.85443e-05
65 *165:12 *907:B 0.000828893
66 *166:69 *961:A 0.000874369
67 *167:20 *191:33 0.000363079
68 *167:20 *191:43 0.000424405
69 *176:141 *966:B 0.000486494
70 *178:14 *905:D 0.00021406
71 *180:43 *907:B 2.25299e-05
72 *180:45 *907:B 1.52705e-05
73 *181:20 *191:43 4.2062e-05
74 *182:85 *966:B 0.000119762
75 *189:63 *191:43 2.40904e-05
76 *189:63 *191:69 5.74829e-05
*RES
1 *1067:Q *191:8 7.585 
2 *191:8 *191:22 11.47 
3 *191:22 *962:A 3.775 
4 *191:22 *191:33 6.44 
5 *191:33 *191:43 28.295 
6 *191:43 *961:A 20.515 
7 *191:43 *965:A2 8.255 
8 *191:33 *191:69 13.42 
9 *191:69 *905:D 8.49 
10 *191:69 *907:B 42.13 
11 *191:8 *966:B 20.36 
*END

*D_NET *192 0.0284523
*CONN
*I *966:A I *D sky130_fd_sc_hd__nand3_1
*I *907:C I *D sky130_fd_sc_hd__and4b_1
*I *905:B I *D sky130_fd_sc_hd__and4_1
*I *965:B1 I *D sky130_fd_sc_hd__a31o_1
*I *1068:Q O *D sky130_fd_sc_hd__dfrtp_2
*CAP
1 *966:A 0.000875715
2 *907:C 0.00114651
3 *905:B 0.000122565
4 *965:B1 6.48931e-05
5 *1068:Q 0.00151219
6 *192:86 0.0026529
7 *192:61 0.00141461
8 *192:57 0.00200211
9 *192:18 0.00291781
10 *905:B *193:22 2.05056e-05
11 *907:C *907:A_N 0.000911952
12 *907:C *912:B1_N 3.7626e-05
13 *907:C *197:41 0.000191793
14 *965:B1 *1097:A 0.000107546
15 *965:B1 *1099:A 5.26654e-05
16 *192:57 *214:62 0.000389688
17 *192:86 *898:A1 6.51073e-05
18 *192:86 *197:41 0.000298893
19 *906:D *192:57 0.000402015
20 *909:A2 *905:B 1.23763e-05
21 *921:C *192:18 2.23253e-05
22 *929:C *192:57 0.000252145
23 *930:A *966:A 0.000261495
24 *937:A *192:86 8.23457e-05
25 *939:A2 *192:18 0.000121036
26 *941:B *905:B 0.000162083
27 *950:B *192:57 0.000153816
28 *954:B *192:18 0
29 *957:A *905:B 1.15688e-05
30 *957:A *192:18 7.51223e-05
31 *957:A *192:57 0.000115279
32 *964:A *192:57 8.00033e-05
33 *965:A1 *965:B1 4.77807e-05
34 *970:C *192:57 8.53113e-06
35 *981:C1 *966:A 0
36 *991:A *192:57 0.000218773
37 *1030:A *966:A 2.99518e-06
38 *1033:A *966:A 0.000110673
39 *1054:CLK *966:A 0.000269916
40 *1054:D *966:A 0.000268904
41 *1059:RESET_B *192:57 0
42 *1065:D *966:A 0.000311607
43 *1068:CLK *192:18 5.0096e-05
44 *1068:D *192:18 6.90254e-05
45 *1068:RESET_B *192:18 0.000229032
46 *1069:D *192:18 1.00941e-05
47 *1070:D *192:61 0.000192493
48 *1071:RESET_B *966:A 0.00040286
49 *1072:D *192:86 0.000116205
50 *1072:RESET_B *905:B 0.000282765
51 *1072:RESET_B *192:86 0.00097636
52 *1073:RESET_B *192:57 6.3124e-06
53 *1077:D *907:C 3.06763e-05
54 *1077:RESET_B *907:C 0.000703582
55 *1084:D *907:C 1.7635e-05
56 *1090:A *905:B 3.50959e-05
57 *1090:A *192:86 0.000304532
58 *1093:A *192:57 0.00026102
59 *20:152 *192:86 6.44978e-06
60 *85:16 *966:A 3.69766e-05
61 *96:12 *192:57 0.000119103
62 *101:18 *907:C 7.8632e-06
63 *101:18 *966:A 8.82125e-05
64 *102:51 *907:C 0.00112931
65 *102:51 *966:A 0.000467943
66 *119:6 *192:18 0.00114951
67 *119:47 *192:57 0.000964907
68 *176:118 *192:61 0.000269353
69 *176:135 *966:A 0.000193017
70 *178:14 *905:B 2.04724e-05
71 *181:18 *192:57 3.26185e-05
72 *181:20 *192:18 0.000162694
73 *181:20 *192:57 0.000468063
74 *185:27 *192:57 0.000155497
75 *186:18 *192:86 1.13262e-05
76 *186:40 *192:86 3.59196e-05
77 *187:45 *966:A 0.00102957
78 *189:63 *192:57 0.000402154
79 *191:43 *192:57 0.000237733
*RES
1 *1068:Q *192:18 28.93 
2 *192:18 *965:B1 5.43 
3 *192:18 *192:57 45.95 
4 *192:57 *192:61 10.04 
5 *192:61 *905:B 7.41 
6 *192:61 *192:86 20.4225 
7 *192:86 *907:C 14.8018 
8 *192:86 *966:A 27.563 
*END

*D_NET *193 0.013929
*CONN
*I *905:A I *D sky130_fd_sc_hd__and4_1
*I *969:A I *D sky130_fd_sc_hd__inv_2
*I *907:D I *D sky130_fd_sc_hd__and4b_1
*I *1069:Q O *D sky130_fd_sc_hd__dfrtp_1
*CAP
1 *905:A 0
2 *969:A 0
3 *907:D 0.000711236
4 *1069:Q 0.00143603
5 *193:30 0.00129194
6 *193:22 0.00201673
7 *907:D *203:60 3.82018e-05
8 *907:D *215:18 0.00133607
9 *193:22 *1009:A1 8.66107e-06
10 *193:22 *203:48 0.00132928
11 *193:22 *204:43 0
12 *193:30 *212:37 0.00154127
13 *904:A *193:22 0
14 *905:B *193:22 2.05056e-05
15 *905:C *193:22 4.66108e-05
16 *905:D *193:22 4.66108e-05
17 *909:A2 *193:30 0.000311079
18 *912:A1 *193:30 0.00021506
19 *941:B *193:22 4.99619e-05
20 *941:B *193:30 4.82919e-05
21 *949:B *193:22 1.7635e-05
22 *951:B *193:22 2.18287e-05
23 *956:C *907:D 0.00086107
24 *963:B *193:22 1.07684e-05
25 *967:B *193:22 0.000591942
26 *1032:A *193:30 6.61627e-05
27 *1064:RESET_B *907:D 6.08911e-05
28 *1069:RESET_B *193:22 4.59914e-05
29 *1072:RESET_B *193:22 2.64114e-05
30 *1077:RESET_B *907:D 1.10377e-05
31 *48:22 *907:D 0
32 *84:39 *907:D 6.33103e-05
33 *96:12 *193:22 0.000118081
34 *158:20 *193:22 0.000240134
35 *165:12 *907:D 1.10377e-05
36 *173:60 *193:22 0.0001288
37 *175:153 *193:22 8.78121e-05
38 *176:82 *193:30 0.000305777
39 *176:89 *193:30 0.000286499
40 *176:118 *193:30 0.000220656
41 *177:12 *193:22 0
42 *188:22 *193:30 0.000213716
43 *188:71 *193:22 9.18707e-05
*RES
1 *1069:Q *193:22 34.625 
2 *193:22 *193:30 22.63 
3 *193:30 *907:D 25.1787 
4 *193:30 *969:A 1.6 
5 *193:22 *905:A 1.6 
*END

*D_NET *194 0.0309072
*CONN
*I *908:B I *D sky130_fd_sc_hd__and4b_1
*I *973:A I *D sky130_fd_sc_hd__or2_1
*I *980:B I *D sky130_fd_sc_hd__and3_1
*I *974:A I *D sky130_fd_sc_hd__nand2_2
*I *982:A3 I *D sky130_fd_sc_hd__a41o_1
*I *983:D I *D sky130_fd_sc_hd__and4_1
*I *1070:Q O *D sky130_fd_sc_hd__dfrtp_4
*CAP
1 *908:B 0.000238491
2 *973:A 0
3 *980:B 0.00068141
4 *974:A 7.69362e-05
5 *982:A3 0.00058791
6 *983:D 0.000854833
7 *1070:Q 0
8 *194:61 0.000848426
9 *194:57 0.00116722
10 *194:49 0.00124387
11 *194:31 0.00480679
12 *194:4 0.00448149
13 *908:B *908:A_N 0.000342177
14 *908:B *908:D 0.00025989
15 *908:B *944:B1 9.3062e-06
16 *908:B *992:A 0.000389788
17 *980:B *995:A 0.000670915
18 *980:B *195:73 3.1388e-05
19 *982:A3 *995:A 3.34691e-05
20 *982:A3 *222:16 0
21 *983:D *899:A1 0.000196376
22 *983:D *902:A 0.0010332
23 *983:D *983:B 0.000228228
24 *194:49 *992:A 0.000360809
25 *194:49 *212:25 0.000840699
26 *194:57 *889:A 0.000130171
27 *194:57 *1004:B1 0.000258469
28 *194:61 *889:A 0.00020624
29 *194:61 *1004:B1 0.000399985
30 *889:B *982:A3 0.000158898
31 *894:B *983:D 0.00159128
32 *899:A2 *983:D 8.49205e-05
33 *899:B1 *983:D 0.000263903
34 *911:A2 *194:49 3.69978e-05
35 *924:C *983:D 0.000535044
36 *941:B *983:D 0.00041284
37 *943:A *194:31 0.00050102
38 *944:A3 *908:B 0.000206824
39 *944:A3 *194:49 0.000357476
40 *963:C *194:31 0.000135531
41 *971:A *983:D 5.21706e-05
42 *974:B *974:A 9.81222e-05
43 *974:B *982:A3 0.000220704
44 *975:A *980:B 7.01359e-05
45 *975:B *194:57 0.000112547
46 *982:A4 *982:A3 0.000409213
47 *984:B *908:B 8.53113e-06
48 *989:B *194:31 9.49093e-05
49 *991:A *982:A3 9.50342e-06
50 *1005:A *194:49 0.000219856
51 *1006:C *194:49 0.000136034
52 *1006:C *194:57 0.000485729
53 *1037:A *980:B 6.26111e-05
54 *1058:RESET_B *982:A3 0.000323611
55 *1060:RESET_B *194:31 3.18137e-05
56 *1061:CLK *194:31 0.000123955
57 *1061:D *980:B 3.60648e-06
58 *1070:RESET_B *194:31 2.62107e-05
59 *1074:D *982:A3 8.18626e-05
60 *1078:D *974:A 0.000258851
61 *1078:D *982:A3 0.000417977
62 *35:10 *194:49 0.000750621
63 *80:18 *908:B 0
64 *97:14 *980:B 0.000158072
65 *146:78 *194:49 0.000120655
66 *154:26 *983:D 0.000304052
67 *155:18 *908:B 4.88205e-05
68 *155:39 *194:31 0.000617991
69 *191:69 *194:31 0.000995839
*RES
1 *1070:Q *194:4 1.6 
2 *194:4 *983:D 35.24 
3 *194:4 *194:31 49.83 
4 *194:31 *194:49 29.34 
5 *194:49 *194:57 10.115 
6 *194:57 *194:61 6.95 
7 *194:61 *982:A3 20.75 
8 *194:61 *974:A 4.12 
9 *194:57 *980:B 16.96 
10 *194:49 *973:A 1.6 
11 *194:31 *908:B 11.505 
*END

*D_NET *195 0.0392508
*CONN
*I *983:C I *D sky130_fd_sc_hd__and4_1
*I *901:A2 I *D sky130_fd_sc_hd__a21o_1
*I *908:A_N I *D sky130_fd_sc_hd__and4b_1
*I *980:A I *D sky130_fd_sc_hd__and3_1
*I *979:B I *D sky130_fd_sc_hd__nand2_1
*I *982:A2 I *D sky130_fd_sc_hd__a41o_1
*I *977:A I *D sky130_fd_sc_hd__xor2_1
*I *1071:Q O *D sky130_fd_sc_hd__dfrtp_4
*CAP
1 *983:C 0.000381521
2 *901:A2 3.86946e-05
3 *908:A_N 0.0015521
4 *980:A 0
5 *979:B 0.000383434
6 *982:A2 0.00172887
7 *977:A 0.00076153
8 *1071:Q 0.000306253
9 *195:73 0.00297041
10 *195:63 0.00283067
11 *195:53 0.0048005
12 *195:28 0.00251891
13 *195:22 0.00181429
14 *195:12 0.00198184
15 *901:A2 *983:A 7.9642e-06
16 *901:A2 *197:64 5.8023e-05
17 *908:A_N *908:D 6.07412e-05
18 *977:A *927:A 6.17587e-06
19 *977:A *200:35 2.32586e-05
20 *982:A2 *982:B1 0
21 *982:A2 *222:16 0.00173367
22 *983:C *902:A 1.88602e-05
23 *983:C *934:A 0.0001491
24 *983:C *983:A 0.00013564
25 *195:12 *902:B 0.000728536
26 *195:22 *910:C 0.000613646
27 *195:22 *931:A1 0.000489588
28 *195:22 *934:A 0.00152389
29 *195:22 *196:108 0.000248212
30 *195:28 *901:A1 7.58965e-05
31 *195:28 *927:A 0.000107752
32 *195:28 *196:108 3.83103e-05
33 *195:53 *201:40 0.00114744
34 *195:73 *903:A 7.97135e-05
35 *195:73 *196:18 0.000137266
36 *195:73 *199:18 0.000109987
37 *195:73 *213:28 0.000198863
38 *893:B *977:A 2.58293e-06
39 *894:B *983:C 1.7635e-05
40 *902:D *195:12 4.50935e-05
41 *904:A *979:B 2.86975e-05
42 *904:B *979:B 0.000197862
43 *908:B *908:A_N 0.000342177
44 *909:B1 *908:A_N 0.000567845
45 *911:A1 *977:A 4.66742e-05
46 *911:A1 *195:28 0.000116825
47 *921:B *979:B 0.000223255
48 *922:A *979:B 0.000110544
49 *925:A *983:C 1.05476e-05
50 *927:B *977:A 3.46053e-05
51 *933:B *195:22 0.000104508
52 *934:B *977:A 4.55763e-05
53 *939:C1 *979:B 0.000426571
54 *942:C *983:C 4.61701e-06
55 *975:A *195:73 1.41928e-05
56 *980:B *195:73 3.1388e-05
57 *981:B1 *195:53 0.000830519
58 *981:B1 *195:63 0.000548578
59 *981:B1 *195:73 8.15092e-05
60 *984:A *908:A_N 0.000413354
61 *1006:C *979:B 3.02538e-05
62 *1007:A *977:A 0.000119151
63 *1007:A *195:28 0.000171843
64 *1007:A *195:73 7.76406e-06
65 *1010:A *982:A2 4.50633e-05
66 *1011:A *195:12 5.98468e-05
67 *1019:A *977:A 1.93765e-05
68 *1059:RESET_B *908:A_N 0.000239072
69 *1060:D *195:12 0.000261932
70 *1061:D *195:63 3.82018e-05
71 *1061:D *195:73 0.000138
72 *1063:D *908:A_N 0.000122534
73 *1063:D *983:C 0
74 *1068:RESET_B *195:73 0
75 *1072:D *901:A2 0
76 *1075:RESET_B *195:63 4.03905e-05
77 *1079:RESET_B *195:73 0.000298289
78 *1081:RESET_B *195:63 8.10313e-05
79 *1083:D *195:22 0
80 *20:22 *982:A2 0
81 *20:22 *195:73 0
82 *20:175 *195:28 0.000388283
83 *20:195 *977:A 5.76232e-06
84 *80:18 *908:A_N 0.000226155
85 *85:16 *195:22 0
86 *87:32 *977:A 0.000156031
87 *87:32 *195:28 8.97812e-05
88 *87:65 *908:A_N 0.000334515
89 *95:8 *979:B 0.00034438
90 *101:18 *983:C 8.40213e-05
91 *101:18 *195:12 0.000180568
92 *126:47 *982:A2 0
93 *146:51 *908:A_N 8.23457e-05
94 *154:26 *983:C 3.38425e-05
95 *155:18 *908:A_N 2.39856e-05
96 *162:34 *195:63 1.30972e-05
97 *162:34 *195:73 1.23268e-05
98 *166:69 *195:73 0.000243328
99 *177:22 *908:A_N 0.000332686
100 *184:66 *195:73 0.000335215
101 *187:47 *195:12 8.24912e-05
102 *189:33 *195:22 0.000567884
103 *189:33 *195:28 3.46689e-05
*RES
1 *1071:Q *195:12 13.4525 
2 *195:12 *195:22 7.51833 
3 *195:22 *195:28 1.33633 
4 *195:28 *977:A 6.51863 
5 *195:28 *195:53 4.08973 
6 *195:53 *195:63 4.66557 
7 *195:63 *195:73 14.4422 
8 *195:73 *982:A2 31.09 
9 *195:73 *979:B 14.19 
10 *195:63 *980:A 3.6 
11 *195:53 *908:A_N 20.6455 
12 *195:22 *901:A2 4.8425 
13 *195:12 *983:C 12.2486 
*END

*D_NET *196 0.033948
*CONN
*I *983:B I *D sky130_fd_sc_hd__and4_1
*I *981:B2 I *D sky130_fd_sc_hd__o221a_1
*I *901:A1 I *D sky130_fd_sc_hd__a21o_1
*I *908:D I *D sky130_fd_sc_hd__and4b_1
*I *979:A I *D sky130_fd_sc_hd__nand2_1
*I *982:A1 I *D sky130_fd_sc_hd__a41o_1
*I *1072:Q O *D sky130_fd_sc_hd__dfrtp_4
*CAP
1 *983:B 0.000795998
2 *981:B2 8.98608e-05
3 *901:A1 0.000150968
4 *908:D 0.00168867
5 *979:A 0.000936348
6 *982:A1 0.000895387
7 *1072:Q 0
8 *196:108 0.00209265
9 *196:89 0.00218002
10 *196:18 0.00319463
11 *196:10 0.0032636
12 *196:4 0.00103429
13 *901:A1 *901:B1 4.7003e-05
14 *901:A1 *197:64 1.89738e-05
15 *908:D *1004:B1 0.000167595
16 *982:A1 *982:B1 0.000997691
17 *983:B *910:A 0.00022786
18 *983:B *910:C 6.64017e-05
19 *983:B *910:D 8.23457e-05
20 *983:B *931:A1 0.000273458
21 *196:10 *898:A1 1.79483e-05
22 *196:10 *198:33 1.19928e-05
23 *196:18 *903:A 0
24 *196:89 *198:33 0.000153148
25 *196:89 *202:24 0.000107452
26 *196:108 *931:A1 0.00153391
27 *892:B *196:89 0.000448981
28 *904:A *979:A 4.55895e-05
29 *904:B *979:A 0
30 *908:A_N *908:D 6.07412e-05
31 *908:B *908:D 0.00025989
32 *922:A *982:A1 0
33 *930:A *981:B2 3.28518e-05
34 *939:A2 *979:A 1.7635e-05
35 *942:A *196:89 2.91772e-05
36 *943:A *196:10 0.000157748
37 *943:A *196:18 0.000183707
38 *949:A *979:A 0.00015007
39 *949:B *979:A 4.89295e-05
40 *954:A *982:A1 0.000111006
41 *954:B *982:A1 2.01504e-05
42 *971:A *983:B 4.18421e-05
43 *972:A2 *196:89 5.63183e-05
44 *981:A1 *979:A 1.88602e-05
45 *981:A1 *981:B2 1.04411e-05
46 *981:A1 *196:89 0
47 *981:A1 *196:108 0.000446911
48 *981:A2 *981:B2 8.7152e-06
49 *981:B1 *901:A1 6.6628e-06
50 *981:B1 *981:B2 8.7152e-06
51 *981:B1 *983:B 2.1832e-05
52 *981:B1 *196:108 0.000257172
53 *981:C1 *981:B2 1.44356e-05
54 *981:C1 *983:B 0
55 *983:D *983:B 0.000228228
56 *984:A *908:D 0.000413354
57 *986:B *982:A1 0.00113318
58 *1007:A *901:A1 9.39045e-07
59 *1007:A *196:89 0.000882616
60 *1013:A *196:18 0.00016093
61 *1030:A *981:B2 6.62421e-05
62 *1056:CLK *196:18 0.000276592
63 *1060:CLK *983:B 0.000142492
64 *1062:D *196:18 0.000513482
65 *1066:CLK *196:18 4.87939e-05
66 *1067:D *196:10 2.49909e-05
67 *1067:D *196:89 3.90573e-05
68 *1068:RESET_B *196:18 0.00151064
69 *1069:D *196:89 9.64974e-05
70 *1069:RESET_B *979:A 7.94585e-05
71 *1079:RESET_B *982:A1 2.62526e-05
72 *1081:RESET_B *196:18 1.92979e-05
73 *1086:A *196:18 0.000103057
74 *49:24 *196:89 0.000155935
75 *62:26 *908:D 0.000106634
76 *93:10 *983:B 0.000117175
77 *93:20 *983:B 5.7924e-05
78 *112:52 *196:18 0.000344483
79 *112:75 *196:10 0.000450273
80 *112:75 *196:18 0.00018799
81 *117:47 *196:89 3.82493e-05
82 *126:16 *982:A1 6.90876e-05
83 *126:47 *982:A1 4.12775e-05
84 *146:38 *908:D 0.00143699
85 *146:51 *908:D 0.000126882
86 *154:26 *983:B 1.33285e-05
87 *155:18 *908:D 0.000223254
88 *159:24 *196:10 5.05981e-05
89 *159:24 *196:18 0.000105196
90 *173:18 *982:A1 2.14816e-05
91 *175:80 *908:D 0.000112816
92 *176:141 *981:B2 0
93 *183:77 *196:18 1.06042e-05
94 *184:33 *982:A1 1.7635e-05
95 *184:66 *196:18 0.000410067
96 *188:63 *979:A 0.000891152
97 *188:63 *982:A1 0.000193129
98 *189:10 *901:A1 1.34298e-05
99 *195:22 *196:108 0.000248212
100 *195:28 *901:A1 7.58965e-05
101 *195:28 *196:108 3.83103e-05
102 *195:73 *196:18 0.000137266
*RES
1 *1072:Q *196:4 1.6 
2 *196:4 *196:10 7.91 
3 *196:10 *196:18 36.92 
4 *196:18 *982:A1 25.1 
5 *196:18 *979:A 18.47 
6 *196:10 *908:D 33.3662 
7 *196:4 *196:89 9.96297 
8 *196:89 *901:A1 5.5079 
9 *196:89 *196:108 3.2794 
10 *196:108 *981:B2 6.1175 
11 *196:108 *983:B 15.7134 
*END

*D_NET *197 0.028034
*CONN
*I *983:A I *D sky130_fd_sc_hd__and4_1
*I *901:B1 I *D sky130_fd_sc_hd__a21o_1
*I *907:A_N I *D sky130_fd_sc_hd__and4b_1
*I *982:B1 I *D sky130_fd_sc_hd__a41o_1
*I *1073:Q O *D sky130_fd_sc_hd__dfrtp_2
*CAP
1 *983:A 0.00287414
2 *901:B1 2.30878e-05
3 *907:A_N 0.000878682
4 *982:B1 0.0019003
5 *1073:Q 3.4179e-05
6 *197:64 0.00317515
7 *197:41 0.00231579
8 *197:8 0.00309366
9 *983:A *931:A1 0
10 *197:41 *940:A 0.000257425
11 *197:41 *212:37 6.83447e-05
12 *892:B *197:64 0.000283281
13 *894:A *983:A 0
14 *895:A2 *901:B1 8.39329e-05
15 *895:B1 *983:A 0
16 *901:A1 *901:B1 4.7003e-05
17 *901:A1 *197:64 1.89738e-05
18 *901:A2 *983:A 7.9642e-06
19 *901:A2 *197:64 5.8023e-05
20 *907:B *907:A_N 2.01565e-05
21 *907:C *907:A_N 0.000911952
22 *907:C *197:41 0.000191793
23 *921:B *982:B1 0.000109009
24 *933:B *983:A 0
25 *954:A *982:B1 0.000123589
26 *954:B *982:B1 0.000388491
27 *954:C *982:B1 0.000161105
28 *957:A *197:41 0.000763912
29 *972:A2 *197:41 0.000238598
30 *981:B1 *983:A 0.000248501
31 *982:A1 *982:B1 0.000997691
32 *982:A2 *982:B1 0
33 *983:C *983:A 0.00013564
34 *988:B *197:41 0.00080873
35 *1006:B *197:41 0
36 *1010:A *982:B1 3.00381e-05
37 *1010:B *982:B1 0.000895867
38 *1010:B *197:41 0.000203472
39 *1030:A *983:A 7.08049e-05
40 *1038:A *983:A 2.30292e-05
41 *1063:D *983:A 0
42 *1069:D *197:41 0.000212541
43 *1069:D *197:64 4.16618e-05
44 *1072:D *983:A 0.00153009
45 *1072:D *197:64 0
46 *1072:RESET_B *197:41 0.000133856
47 *1073:RESET_B *197:8 4.77719e-05
48 *1077:CLK *907:A_N 0.000229021
49 *1077:D *197:41 3.92756e-05
50 *1077:RESET_B *907:A_N 1.19928e-05
51 *1084:D *907:A_N 1.16597e-05
52 *20:152 *197:41 0.00046553
53 *20:175 *197:64 0.000414005
54 *51:26 *907:A_N 3.98635e-05
55 *71:22 *983:A 4.12837e-05
56 *95:21 *982:B1 0.000347997
57 *95:21 *197:41 6.65792e-05
58 *101:18 *907:A_N 0.00124226
59 *101:18 *197:41 0.000219788
60 *102:51 *907:A_N 8.31038e-05
61 *103:66 *982:B1 0.00059846
62 *112:96 *197:41 4.12831e-05
63 *154:26 *983:A 0.000198244
64 *165:12 *907:A_N 4.66108e-05
65 *173:12 *982:B1 1.70396e-05
66 *186:18 *197:41 0.000212852
67 *189:10 *983:A 0
68 *192:86 *197:41 0.000298893
*RES
1 *1073:Q *197:8 4.05 
2 *197:8 *982:B1 45.075 
3 *197:8 *197:41 27.6168 
4 *197:41 *907:A_N 10.1916 
5 *197:41 *197:64 6.8525 
6 *197:64 *901:B1 4.395 
7 *197:64 *983:A 46.18 
*END

*D_NET *198 0.0253577
*CONN
*I *902:C I *D sky130_fd_sc_hd__and4_4
*I *915:A I *D sky130_fd_sc_hd__nand2_1
*I *920:A1 I *D sky130_fd_sc_hd__a21o_1
*I *923:A2 I *D sky130_fd_sc_hd__a31o_1
*I *919:B I *D sky130_fd_sc_hd__nand3_1
*I *916:A I *D sky130_fd_sc_hd__or2_1
*I *1055:Q O *D sky130_fd_sc_hd__dfrtp_4
*CAP
1 *902:C 0.000495872
2 *915:A 0.000168208
3 *920:A1 0.000332068
4 *923:A2 0
5 *919:B 0.000509894
6 *916:A 0.00041837
7 *1055:Q 0
8 *198:62 0.000643589
9 *198:45 0.000972779
10 *198:43 0.00091656
11 *198:37 0.00196155
12 *198:33 0.0034513
13 *198:4 0.00300098
14 *919:B *900:A 0.00103305
15 *919:B *919:A 4.66108e-05
16 *919:B *1099:A 0.00015639
17 *920:A1 *920:B1 0.000197822
18 *920:A1 *923:A1 4.89295e-05
19 *920:A1 *923:B1 2.01504e-05
20 *920:A1 *1095:A 7.02378e-05
21 *920:A1 *1096:A 0.000201739
22 *198:62 *923:A1 1.53053e-05
23 *899:A2 *198:43 0.000157602
24 *902:D *902:C 0.000527461
25 *915:B *915:A 0.00019637
26 *916:B *198:33 0.000227821
27 *921:A *919:B 3.14403e-05
28 *923:A3 *198:62 0.000340804
29 *924:C *198:62 0.000194295
30 *933:A *916:A 0.000109733
31 *933:A *198:33 0.000195432
32 *945:C *916:A 2.86975e-05
33 *951:C *919:B 0.000848401
34 *951:C *198:43 0.00136544
35 *951:C *198:45 0.000331759
36 *955:A *198:33 0.000237139
37 *956:C *198:33 0.000106327
38 *971:A *902:C 5.96947e-05
39 *971:A *198:43 4.36573e-06
40 *972:A1 *198:33 2.76356e-05
41 *999:B *198:43 0.000208484
42 *1008:B1 *920:A1 8.52883e-05
43 *1055:CLK *198:33 7.51951e-05
44 *1055:D *198:33 0.000363138
45 *1059:RESET_B *916:A 0.000648395
46 *1060:CLK *902:C 0.000613953
47 *1063:RESET_B *902:C 4.21889e-05
48 *1067:D *198:33 2.5949e-05
49 *1072:CLK *198:37 0.000560521
50 *1072:RESET_B *198:33 0.000148378
51 *1075:RESET_B *919:B 0.000278404
52 *1080:CLK *915:A 4.12775e-05
53 *32:16 *916:A 0
54 *35:10 *198:33 7.09072e-05
55 *49:24 *198:33 1.41895e-05
56 *49:24 *198:37 0.000307329
57 *71:22 *198:37 0.000733896
58 *80:18 *198:33 3.86025e-05
59 *91:27 *919:B 5.02126e-06
60 *102:51 *920:A1 0.0001871
61 *146:12 *198:43 0.000119585
62 *158:20 *198:37 0.000337221
63 *177:123 *919:B 0.000171158
64 *187:47 *902:C 0.000166061
65 *187:47 *198:43 6.23083e-05
66 *187:47 *198:45 5.06382e-06
67 *187:49 *198:45 5.06286e-05
68 *187:55 *919:B 2.53191e-06
69 *187:55 *198:45 5.98573e-05
70 *187:55 *198:62 0.000118081
71 *196:10 *198:33 1.19928e-05
72 *196:89 *198:33 0.000153148
*RES
1 *1055:Q *198:4 1.6 
2 *198:4 *916:A 15.05 
3 *198:4 *198:33 37.87 
4 *198:33 *198:37 20.045 
5 *198:37 *198:43 16.98 
6 *198:43 *198:45 4.185 
7 *198:45 *919:B 21.51 
8 *198:45 *198:62 7.985 
9 *198:62 *923:A2 1.6 
10 *198:62 *920:A1 13.535 
11 *198:43 *915:A 6.48 
12 *198:37 *902:C 15.27 
*END

*D_NET *199 0.0245455
*CONN
*I *910:D I *D sky130_fd_sc_hd__and4_2
*I *989:A I *D sky130_fd_sc_hd__nand2_1
*I *988:A I *D sky130_fd_sc_hd__or2_1
*I *993:B I *D sky130_fd_sc_hd__and4_1
*I *1074:Q O *D sky130_fd_sc_hd__dfrtp_2
*CAP
1 *910:D 6.52939e-05
2 *989:A 0.00139561
3 *988:A 0
4 *993:B 4.81747e-05
5 *1074:Q 0.00246257
6 *199:60 0.00220003
7 *199:41 0.00111719
8 *199:18 0.00288881
9 *989:A *1096:A 0.000446383
10 *993:B *934:A 1.92129e-05
11 *199:18 *204:43 0.000176266
12 *199:18 *213:28 3.91569e-06
13 *199:18 *219:16 0.00024243
14 *199:60 *931:B1 0.00111379
15 *891:B *199:41 2.75229e-05
16 *891:B *199:60 0.0001022
17 *892:B *199:41 4.12303e-05
18 *893:A *199:60 6.00111e-05
19 *894:A *199:60 0.00127224
20 *894:B *989:A 0.000630421
21 *894:B *199:60 0.000180977
22 *922:A *199:18 0.00060494
23 *926:A *199:18 8.39868e-06
24 *942:A *993:B 9.58678e-06
25 *942:C *993:B 4.03791e-05
26 *942:C *199:41 0.0004709
27 *951:B *199:18 0.00261853
28 *953:A2 *199:41 4.82919e-05
29 *953:A2 *199:60 0.000217878
30 *975:A *199:18 0.000119043
31 *981:B1 *199:18 4.19454e-05
32 *983:B *910:D 8.23457e-05
33 *988:B *199:41 0.000117278
34 *989:B *989:A 6.55395e-05
35 *993:C *993:B 2.05641e-05
36 *1007:A *199:18 0.00167814
37 *1011:B *989:A 5.89988e-05
38 *1061:D *199:18 8.74157e-06
39 *1063:D *989:A 0.000629
40 *1063:D *199:60 0.000189508
41 *1071:RESET_B *199:60 0.000285267
42 *1072:D *199:41 0.00011553
43 *1074:RESET_B *199:18 0.000264849
44 *1078:RESET_B *199:18 8.49744e-05
45 *1079:RESET_B *989:A 0
46 *1083:RESET_B *199:60 0.000297537
47 *86:43 *199:41 0.000164769
48 *101:18 *993:B 4.03821e-05
49 *101:18 *199:41 0.000156232
50 *117:47 *989:A 0.00048142
51 *166:69 *199:18 0.000319856
52 *177:89 *989:A 0.000290298
53 *185:6 *199:60 9.03508e-06
54 *185:19 *199:60 0.00040106
55 *195:73 *199:18 0.000109987
*RES
1 *1074:Q *199:18 21.5488 
2 *199:18 *993:B 4.4579 
3 *199:18 *199:41 6.75383 
4 *199:41 *988:A 1.6 
5 *199:41 *199:60 27.86 
6 *199:60 *989:A 38.86 
7 *199:60 *910:D 4.395 
*END

*D_NET *200 0.0209432
*CONN
*I *910:C I *D sky130_fd_sc_hd__and4_2
*I *993:A I *D sky130_fd_sc_hd__and4_1
*I *992:A I *D sky130_fd_sc_hd__inv_2
*I *1075:Q O *D sky130_fd_sc_hd__dfrtp_2
*CAP
1 *910:C 0.0015075
2 *993:A 0.000249884
3 *992:A 0.00112091
4 *1075:Q 2.89988e-05
5 *200:35 0.00341032
6 *200:8 0.00280285
7 *910:C *910:A 0.000410785
8 *910:C *931:A1 0.000273639
9 *910:C *934:A 0.000263722
10 *992:A *215:18 0.000386221
11 *200:35 *934:A 0.000419875
12 *893:B *910:C 2.22315e-05
13 *893:B *200:35 0.000822792
14 *908:B *992:A 0.000389788
15 *911:A1 *992:A 0.000200742
16 *911:A1 *200:35 1.7635e-05
17 *933:B *910:C 0.000104508
18 *934:B *200:35 0.000148266
19 *944:A3 *992:A 2.94708e-05
20 *970:A *200:35 0.000231762
21 *977:A *200:35 2.32586e-05
22 *981:C1 *910:C 0.000157503
23 *983:B *910:C 6.64017e-05
24 *984:B *992:A 0.000470865
25 *988:B *910:C 8.23228e-05
26 *994:A1 *992:A 0.00270465
27 *994:A1 *200:35 0.000356172
28 *1007:A *200:35 0
29 *1069:D *910:C 7.54285e-05
30 *1071:RESET_B *910:C 7.70996e-05
31 *1079:D *200:35 1.33917e-05
32 *1081:CLK *200:8 4.66108e-05
33 *20:175 *993:A 0.000159526
34 *35:10 *992:A 0.000203475
35 *35:10 *200:35 1.03592e-05
36 *62:26 *992:A 0.000935383
37 *80:18 *992:A 0
38 *87:32 *200:35 3.33001e-05
39 *154:26 *910:C 0.000516314
40 *154:26 *993:A 9.30614e-05
41 *159:24 *993:A 0
42 *166:69 *992:A 1.26548e-05
43 *183:24 *200:35 0.000109729
44 *189:33 *910:C 0.00097936
45 *194:49 *992:A 0.000360809
46 *195:22 *910:C 0.000613646
*RES
1 *1075:Q *200:8 4.05 
2 *200:8 *992:A 45.79 
3 *200:8 *200:35 4.60343 
4 *200:35 *993:A 7.9625 
5 *200:35 *910:C 14.5738 
*END

*D_NET *201 0.0272104
*CONN
*I *910:B I *D sky130_fd_sc_hd__and4_2
*I *996:A I *D sky130_fd_sc_hd__and2_1
*I *995:A I *D sky130_fd_sc_hd__nor2_1
*I *1076:Q O *D sky130_fd_sc_hd__dfrtp_2
*CAP
1 *910:B 0.00143724
2 *996:A 0
3 *995:A 0.00109588
4 *1076:Q 0
5 *201:40 0.00329738
6 *201:6 0.00363875
7 *910:B *902:A 0.000342531
8 *910:B *902:B 0.000320803
9 *995:A *1100:A 0.00020132
10 *201:40 *912:B1_N 0.000139274
11 *201:40 *927:A 0
12 *201:40 *203:60 0.000229645
13 *889:B *995:A 0.000137564
14 *889:C *995:A 0.000835747
15 *895:B1 *910:B 2.96761e-05
16 *902:D *910:B 0
17 *943:A *201:40 4.16809e-05
18 *953:B1 *201:40 3.92756e-05
19 *956:B *201:40 0.000536831
20 *975:A *995:A 0.00012923
21 *980:B *995:A 0.000670915
22 *981:A2 *910:B 0.0027978
23 *981:B1 *910:B 0.000226549
24 *982:A3 *995:A 3.34691e-05
25 *995:B *995:A 0.0013215
26 *1028:A *995:A 0.00107613
27 *1034:A *995:A 1.08758e-05
28 *1035:A *201:40 6.85246e-05
29 *1037:A *995:A 0.000600611
30 *1055:RESET_B *201:40 2.13924e-05
31 *1058:RESET_B *995:A 0.000692611
32 *1060:CLK *910:B 0
33 *1061:D *201:40 0.00125921
34 *1062:D *995:A 2.76781e-05
35 *1062:D *201:40 0.000119756
36 *1062:RESET_B *995:A 3.04704e-05
37 *1064:RESET_B *995:A 0.000157555
38 *1076:RESET_B *910:B 2.34331e-05
39 *1084:RESET_B *201:40 9.05535e-05
40 *1088:A *201:40 0.000137049
41 *20:175 *201:40 4.51682e-05
42 *29:12 *910:B 0.00142978
43 *62:26 *201:40 7.37559e-05
44 *87:32 *201:40 8.72586e-05
45 *97:14 *995:A 0.000122331
46 *97:14 *201:40 0.00010978
47 *162:34 *201:40 0.000676974
48 *162:38 *995:A 3.74161e-05
49 *168:26 *201:40 0.000837219
50 *169:8 *201:40 0.000229645
51 *176:16 *995:A 0.000594713
52 *195:53 *201:40 0.00114744
*RES
1 *1076:Q *201:6 3.6 
2 *201:6 *201:40 41.2611 
3 *201:40 *995:A 46.35 
4 *201:40 *996:A 1.6 
5 *201:6 *910:B 49.075 
*END

*D_NET *202 0.0168349
*CONN
*I *910:A I *D sky130_fd_sc_hd__and4_2
*I *1000:A1 I *D sky130_fd_sc_hd__o211a_1
*I *1077:Q O *D sky130_fd_sc_hd__dfrtp_1
*CAP
1 *910:A 0.000436779
2 *1000:A1 0.00131004
3 *1077:Q 0.00192482
4 *202:24 0.00367164
5 *1000:A1 *1097:A 0.000558353
6 *910:C *910:A 0.000410785
7 *916:B *202:24 4.66108e-05
8 *930:A *1000:A1 0.000255972
9 *942:A *202:24 0.000300988
10 *951:B *202:24 3.63701e-06
11 *951:C *1000:A1 0
12 *951:C *202:24 0.0021152
13 *963:A *1000:A1 8.40269e-05
14 *971:A *1000:A1 2.32011e-05
15 *981:C1 *910:A 0.000178276
16 *983:B *910:A 0.00022786
17 *993:C *202:24 2.50933e-05
18 *1000:A2 *1000:A1 0.000137893
19 *1000:C1 *1000:A1 0.000139566
20 *1054:RESET_B *202:24 0.000290837
21 *1058:D *1000:A1 0.000538517
22 *1070:RESET_B *1000:A1 0
23 *1071:RESET_B *910:A 0.000471316
24 *1071:RESET_B *1000:A1 1.64172e-05
25 *1073:RESET_B *1000:A1 0.000921491
26 *1080:D *1000:A1 0.000124052
27 *1084:RESET_B *202:24 5.63636e-05
28 *49:24 *1000:A1 0.000813234
29 *93:20 *910:A 5.83217e-05
30 *93:20 *1000:A1 0.000259903
31 *117:47 *202:24 0.000321149
32 *126:97 *202:24 0.000151428
33 *154:26 *910:A 2.0514e-05
34 *175:159 *1000:A1 5.85963e-05
35 *177:61 *1000:A1 0.000136606
36 *177:80 *1000:A1 0.000476961
37 *187:45 *202:24 0.000161033
38 *196:89 *202:24 0.000107452
*RES
1 *1077:Q *202:24 15.5873 
2 *202:24 *1000:A1 45.2275 
3 *202:24 *910:A 14.4975 
*END

*D_NET *203 0.0201468
*CONN
*I *1001:A I *D sky130_fd_sc_hd__inv_2
*I *911:C1 I *D sky130_fd_sc_hd__o211ai_4
*I *1004:A1 I *D sky130_fd_sc_hd__a31o_1
*I *1078:Q O *D sky130_fd_sc_hd__dfrtp_4
*CAP
1 *1001:A 0.000714534
2 *911:C1 0.000700615
3 *1004:A1 6.14796e-06
4 *1078:Q 0.00146435
5 *203:60 0.00156743
6 *203:48 0.00303955
7 *203:48 *941:A 0.000118081
8 *203:60 *1004:B1 0.000193801
9 *899:B1 *1001:A 0.000634493
10 *904:A *203:48 0
11 *905:D *203:48 0.000288349
12 *907:B *203:48 0.000196785
13 *907:D *203:60 3.82018e-05
14 *911:B1 *911:C1 6.65725e-05
15 *916:B *911:C1 0.000470962
16 *916:B *1004:A1 1.88602e-05
17 *929:C *1001:A 0.00015529
18 *946:A *203:48 1.76792e-05
19 *947:C *203:48 7.01359e-05
20 *953:A2 *1001:A 4.72463e-05
21 *956:C *203:60 3.69766e-05
22 *960:C *1001:A 0.000162195
23 *961:A *203:48 0.000135342
24 *963:B *203:48 0.000122801
25 *967:B *203:48 0.000624649
26 *970:C *1001:A 0.000880892
27 *999:B *1001:A 0.000191335
28 *999:B *203:60 0.00190258
29 *1004:A3 *203:60 0.00019329
30 *1045:A *911:C1 0
31 *1055:RESET_B *911:C1 0.000105928
32 *1055:RESET_B *203:60 0.000182975
33 *1057:D *203:48 8.23457e-05
34 *1059:D *203:48 0.000363437
35 *1059:RESET_B *203:60 4.27433e-05
36 *1066:RESET_B *203:48 3.23836e-05
37 *1067:D *1001:A 2.04328e-05
38 *1069:RESET_B *203:48 4.41205e-05
39 *1084:RESET_B *203:48 0.000579728
40 *1090:A *1001:A 0.000128335
41 *1090:A *203:48 0.00015498
42 *20:129 *203:60 8.23457e-05
43 *62:26 *203:60 5.14317e-05
44 *80:18 *203:48 6.42305e-05
45 *85:16 *1001:A 0.000154003
46 *93:50 *911:C1 0.000159495
47 *93:50 *1004:A1 1.17036e-05
48 *96:12 *203:48 0.000119242
49 *102:14 *911:C1 0.000236355
50 *103:38 *203:48 3.79532e-05
51 *103:52 *203:48 0
52 *126:97 *1001:A 0.000589068
53 *154:26 *1001:A 4.66108e-05
54 *158:20 *203:48 0.000130089
55 *166:69 *203:48 8.31406e-05
56 *169:8 *203:60 0.000681395
57 *175:80 *911:C1 9.52091e-05
58 *175:153 *203:48 0.000156758
59 *181:44 *203:48 8.35106e-05
60 *185:27 *1001:A 8.73147e-06
61 *185:43 *203:48 0
62 *189:63 *1001:A 0
63 *193:22 *203:48 0.00132928
64 *201:40 *203:60 0.000229645
*RES
1 *1078:Q *203:48 49.4293 
2 *203:48 *203:60 23.7616 
3 *203:60 *1004:A1 3.8325 
4 *203:60 *911:C1 18.1425 
5 *203:48 *1001:A 30.3 
*END

*D_NET *204 0.0201229
*CONN
*I *900:A I *D sky130_fd_sc_hd__inv_2
*I *1009:A2 I *D sky130_fd_sc_hd__o211a_1
*I *1004:B1 I *D sky130_fd_sc_hd__a31o_1
*I *1079:Q O *D sky130_fd_sc_hd__dfrtp_2
*CAP
1 *900:A 0.000712944
2 *1009:A2 2.25553e-05
3 *1004:B1 0.00170042
4 *1079:Q 0.000220946
5 *204:43 0.00161024
6 *204:8 0.00279611
7 *1004:B1 *889:A 0.000117851
8 *204:8 *1014:B1_N 1.58293e-05
9 *204:43 *1009:A1 7.518e-05
10 *204:43 *213:28 0
11 *904:A *204:43 1.98085e-05
12 *907:B *1004:B1 0.000155642
13 *908:D *1004:B1 0.000167595
14 *912:A1 *1004:B1 0.000575743
15 *919:B *900:A 0.00103305
16 *950:B *204:43 0.000251039
17 *961:B *204:43 8.01849e-05
18 *991:A *1004:B1 0.000950591
19 *1004:A3 *1004:B1 0.000154508
20 *1008:B2 *900:A 0.000330308
21 *1009:B1 *1009:A2 3.116e-05
22 *1009:C1 *900:A 0.00147273
23 *1009:C1 *1009:A2 4.30166e-05
24 *1016:A *1004:B1 0.000227437
25 *1017:A2 *1004:B1 3.95414e-05
26 *1061:D *204:8 4.9213e-05
27 *1061:D *204:43 6.41825e-07
28 *1068:RESET_B *204:8 0
29 *1078:RESET_B *204:43 0.000973331
30 *1079:D *1004:B1 5.40483e-06
31 *1079:RESET_B *204:43 0.000401141
32 *1080:D *900:A 0.00140231
33 *48:22 *1004:B1 0.000584665
34 *84:39 *1004:B1 0.00066898
35 *91:27 *1004:B1 0.000253654
36 *112:18 *204:43 7.68851e-05
37 *112:141 *900:A 3.73067e-05
38 *112:141 *1009:A2 9.54772e-05
39 *133:60 *1004:B1 0.000371637
40 *146:38 *1004:B1 1.91597e-05
41 *146:51 *1004:B1 3.63243e-05
42 *166:8 *900:A 4.27883e-06
43 *166:14 *900:A 0.000251226
44 *166:69 *204:43 6.14446e-05
45 *168:26 *204:43 0.000254152
46 *169:8 *1004:B1 0.00033764
47 *175:16 *204:8 0.000127095
48 *176:14 *1004:B1 0.000154353
49 *177:123 *900:A 8.53113e-06
50 *188:22 *1004:B1 0.000115076
51 *193:22 *204:43 0
52 *194:57 *1004:B1 0.000258469
53 *194:61 *1004:B1 0.000399985
54 *199:18 *204:43 0.000176266
55 *203:60 *1004:B1 0.000193801
*RES
1 *1079:Q *204:8 7.1475 
2 *204:8 *1004:B1 40.4822 
3 *204:8 *204:43 9.35637 
4 *204:43 *1009:A2 2.755 
5 *204:43 *900:A 32.21 
*END

*D_NET *205 0.019473
*CONN
*I *1009:A1 I *D sky130_fd_sc_hd__o211a_1
*I *912:B1_N I *D sky130_fd_sc_hd__a21bo_4
*I *1080:Q O *D sky130_fd_sc_hd__dfrtp_1
*CAP
1 *1009:A1 0.00133099
2 *912:B1_N 0.00302585
3 *1080:Q 0.00187383
4 *205:12 0.00623067
5 *205:12 *213:14 4.11685e-05
6 an[7] *205:12 7.15795e-05
7 *891:A *912:B1_N 1.56428e-05
8 *907:C *912:B1_N 3.7626e-05
9 *916:B *912:B1_N 0
10 *946:A *912:B1_N 3.58223e-05
11 *950:B *1009:A1 1.84761e-05
12 *976:A *912:B1_N 0.000162944
13 *990:A *912:B1_N 0.000175629
14 *990:A *205:12 5.30924e-05
15 *1059:D *912:B1_N 0.000195902
16 *1066:RESET_B *912:B1_N 0.00031122
17 *1066:RESET_B *205:12 0.000256448
18 *1077:D *1009:A1 8.64545e-05
19 *1079:RESET_B *1009:A1 0.000108915
20 *1084:D *912:B1_N 7.10593e-06
21 *1086:A *912:B1_N 0.000167203
22 *1088:A *912:B1_N 0.000774144
23 *20:129 *912:B1_N 0.000239768
24 *69:12 *205:12 4.11685e-05
25 *80:18 *912:B1_N 0
26 *80:18 *205:12 0
27 *86:51 *1009:A1 0.00138254
28 *91:27 *912:B1_N 0
29 *103:14 *912:B1_N 0.000115708
30 *103:24 *912:B1_N 0.000627786
31 *103:38 *912:B1_N 2.93621e-05
32 *118:38 *912:B1_N 0
33 *162:34 *912:B1_N 3.83233e-05
34 *167:20 *1009:A1 0.00067044
35 *167:20 *205:12 3.92756e-05
36 *168:26 *1009:A1 0.000551321
37 *177:80 *205:12 0.000153208
38 *178:33 *912:B1_N 0.000165393
39 *188:22 *912:B1_N 7.70946e-05
40 *188:102 *912:B1_N 8.23457e-05
41 *189:63 *912:B1_N 4.83308e-05
42 *189:63 *205:12 7.10991e-06
43 *193:22 *1009:A1 8.66107e-06
44 *201:40 *912:B1_N 0.000139274
45 *204:43 *1009:A1 7.518e-05
*RES
1 *1080:Q *205:12 7.91757 
2 *205:12 *912:B1_N 38.0758 
3 *205:12 *1009:A1 9.00963 
*END

*D_NET *206 0.0165746
*CONN
*I *902:B I *D sky130_fd_sc_hd__and4_4
*I *923:A1 I *D sky130_fd_sc_hd__a31o_1
*I *920:B1 I *D sky130_fd_sc_hd__a21o_1
*I *919:A I *D sky130_fd_sc_hd__nand3_1
*I *1056:Q O *D sky130_fd_sc_hd__dfrtp_2
*CAP
1 *902:B 0.000865276
2 *923:A1 0.000134324
3 *920:B1 0.000533213
4 *919:A 0.000413638
5 *1056:Q 0.00142545
6 *206:22 0.000992749
7 *206:20 0.000231584
8 *206:18 0.00234209
9 *902:B *902:A 0.00141557
10 *919:A *1099:A 1.91597e-05
11 *920:B1 *1095:A 6.9669e-05
12 *923:A1 *923:B1 0.000305046
13 *206:20 *902:A 5.4419e-05
14 *902:D *902:B 7.9968e-05
15 *910:B *902:B 0.000320803
16 *914:B *206:18 0.00101269
17 *919:B *919:A 4.66108e-05
18 *919:C *919:A 0.00113695
19 *919:C *206:20 2.85623e-05
20 *919:C *206:22 0.000201739
21 *920:A1 *920:B1 0.000197822
22 *920:A1 *923:A1 4.89295e-05
23 *921:A *919:A 3.64998e-06
24 *923:A3 *923:A1 0.000328142
25 *1002:A *919:A 1.15688e-05
26 *1008:B1 *920:B1 4.21579e-05
27 *1008:B2 *920:B1 4.77757e-05
28 *1080:D *920:B1 4.82036e-05
29 *1093:A *206:18 0.000158541
30 *93:108 *206:18 0
31 *103:52 *206:18 0.000111147
32 *166:8 *902:B 0.000919999
33 *166:8 *919:A 0.000131444
34 *166:8 *206:20 0.000123696
35 *166:8 *206:22 0.000195462
36 *166:14 *919:A 0.000699126
37 *168:26 *919:A 0.00032177
38 *181:8 *206:18 8.23457e-05
39 *183:77 *206:18 0.000444456
40 *187:47 *902:B 0.000238428
41 *187:55 *923:A1 4.66108e-05
42 *195:12 *902:B 0.000728536
43 *198:62 *923:A1 1.53053e-05
*RES
1 *1056:Q *206:18 29.56 
2 *206:18 *206:20 1.635 
3 *206:20 *206:22 2.4 
4 *206:22 *919:A 18.27 
5 *206:22 *920:B1 16.345 
6 *206:20 *923:A1 7.845 
7 *206:18 *902:B 32.82 
*END

*D_NET *207 0.0139309
*CONN
*I *902:A I *D sky130_fd_sc_hd__and4_4
*I *923:B1 I *D sky130_fd_sc_hd__a31o_1
*I *1057:Q O *D sky130_fd_sc_hd__dfrtp_1
*CAP
1 *902:A 0.00107343
2 *923:B1 0.000204924
3 *1057:Q 0.00230884
4 *207:18 0.0035872
5 *207:18 *1040:A 0.000147494
6 *207:18 *1097:A 0.000289562
7 *207:18 *214:43 8.50801e-06
8 *894:B *902:A 8.28201e-05
9 *895:B1 *902:A 5.23024e-05
10 *902:B *902:A 0.00141557
11 *910:B *902:A 0.000342531
12 *919:C *902:A 3.98155e-05
13 *919:C *207:18 0.000104402
14 *920:A1 *923:B1 2.01504e-05
15 *921:C *207:18 0.000118534
16 *923:A1 *923:B1 0.000305046
17 *924:C *902:A 0.000865996
18 *963:C *207:18 1.79408e-05
19 *983:C *902:A 1.88602e-05
20 *983:D *902:A 0.0010332
21 *1002:A *207:18 3.23391e-05
22 *1006:C *207:18 2.84635e-05
23 *1009:C1 *207:18 8.51397e-05
24 *1057:D *207:18 7.74539e-05
25 *1057:RESET_B *207:18 0.000118676
26 *1063:D *902:A 0
27 *1078:CLK *207:18 0.000148062
28 *1080:RESET_B *902:A 3.93957e-05
29 *1080:RESET_B *207:18 0.00026231
30 *80:18 *902:A 1.88656e-05
31 *167:43 *207:18 4.23697e-05
32 *177:57 *207:18 0.000819709
33 *177:117 *207:18 0.00011686
34 *181:44 *207:18 4.97434e-05
35 *206:20 *902:A 5.4419e-05
*RES
1 *1057:Q *207:18 37.335 
2 *207:18 *923:B1 7.17 
3 *207:18 *902:A 36.66 
*END

*D_NET *208 0.0255334
*CONN
*I *932:B I *D sky130_fd_sc_hd__and3_1
*I *928:A I *D sky130_fd_sc_hd__or2_1
*I *903:D I *D sky130_fd_sc_hd__and4_1
*I *927:A I *D sky130_fd_sc_hd__nand2_1
*I *931:A1 I *D sky130_fd_sc_hd__a21oi_1
*I *1058:Q O *D sky130_fd_sc_hd__dfrtp_2
*CAP
1 *932:B 0.000402538
2 *928:A 2.00682e-05
3 *903:D 0.000355819
4 *927:A 0.000445157
5 *931:A1 0.00205342
6 *1058:Q 0
7 *208:93 0.000651393
8 *208:34 0.0039824
9 *208:8 0.00238767
10 *208:4 0.000776818
11 *903:D *903:C 8.40269e-05
12 *903:D *219:16 8.23457e-05
13 *931:A1 *934:A 0
14 *931:A1 *213:14 0
15 *932:B *214:62 6.14215e-05
16 *208:34 *898:A1 0.000508128
17 *891:B *927:A 1.79483e-05
18 *891:B *208:34 9.90619e-05
19 *892:B *208:34 0.000482565
20 *895:A2 *927:A 0.000457264
21 *899:A2 *932:B 0.000218585
22 *899:A2 *208:93 8.52883e-05
23 *899:B1 *208:34 0.000163877
24 *904:A *208:93 2.16952e-05
25 *910:C *931:A1 0.000273639
26 *911:A1 *927:A 0.000994439
27 *917:A *932:B 0.000300423
28 *917:B *932:B 6.62456e-05
29 *928:B *932:B 4.77719e-05
30 *929:A *208:34 5.53376e-05
31 *929:B *927:A 0.00159725
32 *929:C *208:34 0.000439979
33 *937:A *208:34 0.000240451
34 *942:A *208:34 5.4419e-05
35 *953:A2 *208:34 0.000112143
36 *957:A *932:B 2.87901e-05
37 *958:A *208:8 8.73389e-06
38 *960:C *208:34 1.46744e-05
39 *972:A1 *208:34 0.000677049
40 *977:A *927:A 6.17587e-06
41 *983:A *931:A1 0
42 *983:B *931:A1 0.000273458
43 *1006:B *903:D 0.000715725
44 *1006:B *208:34 3.97409e-05
45 *1006:C *903:D 0.000363007
46 *1010:A *903:D 0.000176646
47 *1010:A *208:34 0.000298736
48 *1012:B *208:34 1.81029e-05
49 *1013:A *208:8 4.11718e-05
50 *1019:A *927:A 0
51 *1058:RESET_B *208:8 0.00012669
52 *1058:RESET_B *208:93 4.05029e-05
53 *1065:D *927:A 2.577e-05
54 *1065:D *208:34 0.000110836
55 *1072:RESET_B *208:34 0
56 *1075:D *927:A 2.92522e-05
57 *1083:RESET_B *208:34 8.34852e-05
58 *1084:RESET_B *208:34 0.000400102
59 *1090:A *208:34 7.48995e-05
60 *1093:A *932:B 0.000101482
61 *1093:A *208:93 4.8854e-05
62 *20:58 *208:8 0.000339027
63 *20:152 *208:34 0.000225285
64 *20:195 *927:A 6.45238e-05
65 *93:110 *208:93 0
66 *103:52 *208:93 1.0397e-05
67 *183:61 *208:34 0.00100957
68 *183:77 *928:A 3.50152e-06
69 *183:81 *208:93 0.000110471
70 *189:33 *931:A1 1.51837e-05
71 *189:63 *932:B 0.000380719
72 *195:22 *931:A1 0.000489588
73 *195:28 *927:A 0.000107752
74 *196:108 *931:A1 0.00153391
75 *201:40 *927:A 0
*RES
1 *1058:Q *208:4 1.6 
2 *208:4 *208:8 10.385 
3 *208:8 *208:34 43.3675 
4 *208:34 *931:A1 10.2022 
5 *208:34 *927:A 25.8175 
6 *208:8 *903:D 13.62 
7 *208:4 *208:93 8.26 
8 *208:93 *928:A 1.96 
9 *208:93 *932:B 14.645 
*END

*D_NET *209 0.0151924
*CONN
*I *931:B1 I *D sky130_fd_sc_hd__a21oi_1
*I *932:A I *D sky130_fd_sc_hd__and3_1
*I *903:C I *D sky130_fd_sc_hd__and4_1
*I *1059:Q O *D sky130_fd_sc_hd__dfrtp_1
*CAP
1 *931:B1 0.00148994
2 *932:A 1.36534e-05
3 *903:C 0.00113397
4 *1059:Q 0.000134698
5 *209:24 0.00138334
6 *209:18 0.00186035
7 *903:C *219:16 0.000658126
8 *931:B1 *214:62 0.00016514
9 *931:B1 *214:72 2.6347e-05
10 *932:A *214:62 4.66108e-05
11 *209:24 *214:62 2.22814e-05
12 *894:A *931:B1 3.83194e-05
13 *894:B *931:B1 4.82919e-05
14 *899:B1 *931:B1 0.000627009
15 *903:D *903:C 8.40269e-05
16 *904:B *903:C 0.000485022
17 *906:D *903:C 0
18 *917:B *903:C 0.000376291
19 *931:A2 *931:B1 0.000481136
20 *932:C *932:A 4.66108e-05
21 *933:B *931:B1 6.69608e-06
22 *936:B *931:B1 0
23 *950:B *903:C 0.000156765
24 *959:B *903:C 0
25 *964:A *903:C 0.000267369
26 *990:A *209:18 0.000192968
27 *1005:A *903:C 1.00868e-05
28 *1015:A1 *903:C 0.000449297
29 *1039:A *931:B1 6.3499e-05
30 *1071:D *931:B1 0.000847275
31 *1071:RESET_B *931:B1 0.000156541
32 *93:20 *931:B1 9.27495e-05
33 *94:10 *903:C 0.000120923
34 *137:31 *903:C 5.84554e-05
35 *137:31 *931:B1 0.000422231
36 *137:31 *209:24 0.000673693
37 *142:18 *931:B1 0
38 *167:43 *903:C 0.000107925
39 *176:135 *931:B1 0.000375977
40 *181:10 *209:24 0.000100907
41 *181:12 *209:24 0.000210596
42 *181:18 *903:C 5.84554e-05
43 *181:18 *209:24 0.000134263
44 *181:82 *209:24 0.00018343
45 *181:92 *209:18 0.000110377
46 *191:22 *931:B1 0.000157002
47 *199:60 *931:B1 0.00111379
*RES
1 *1059:Q *209:18 7.08 
2 *209:18 *209:24 8.4075 
3 *209:24 *903:C 22.8659 
4 *209:24 *932:A 4.05 
5 *209:18 *931:B1 43.2825 
*END

*D_NET *210 0.0293965
*CONN
*I *934:A I *D sky130_fd_sc_hd__or2_1
*I *903:B I *D sky130_fd_sc_hd__and4_1
*I *935:A I *D sky130_fd_sc_hd__nand2_1
*I *1060:Q O *D sky130_fd_sc_hd__dfrtp_2
*CAP
1 *934:A 0.00250244
2 *903:B 0.00176294
3 *935:A 0.000679585
4 *1060:Q 0
5 *210:34 0.00629732
6 *210:4 0.00635723
7 *903:B *903:A 2.08208e-05
8 *903:B *213:14 0.000433499
9 *903:B *213:28 0.000399969
10 *210:34 *1095:A 0.000179008
11 *210:34 *1096:A 0.000271855
12 *210:34 *213:14 6.78789e-05
13 *891:B *934:A 3.32129e-05
14 *910:C *934:A 0.000263722
15 *925:A *934:A 0.000290282
16 *925:A *210:34 0.000143793
17 *927:B *934:A 0
18 *931:A1 *934:A 0
19 *933:B *934:A 0.000154871
20 *934:B *934:A 4.55864e-06
21 *935:B *935:A 0
22 *942:B *934:A 9.83692e-05
23 *942:C *934:A 0.00301517
24 *942:C *210:34 0
25 *970:A *934:A 0.000237085
26 *983:C *934:A 0.0001491
27 *988:B *934:A 0.000117168
28 *993:B *934:A 1.92129e-05
29 *994:A1 *934:A 0.000483871
30 *1010:A *903:B 1.83114e-05
31 *1011:A *210:34 4.23591e-05
32 *1011:B *210:34 2.84546e-05
33 *1068:D *935:A 0
34 *1069:D *934:A 7.54285e-05
35 *1079:RESET_B *903:B 0.00313613
36 *1079:RESET_B *210:34 0
37 *1080:D *935:A 0
38 *1080:D *210:34 0
39 *1084:D *934:A 4.02996e-05
40 *87:44 *934:A 7.23042e-05
41 *101:18 *934:A 4.63082e-05
42 *102:51 *934:A 0
43 *102:51 *210:34 1.01505e-05
44 *195:22 *934:A 0.00152389
45 *200:35 *934:A 0.000419875
*RES
1 *1060:Q *210:4 1.6 
2 *210:4 *210:34 18.8193 
3 *210:34 *935:A 14.0775 
4 *210:34 *903:B 10.0782 
5 *210:4 *934:A 18.9256 
*END

*D_NET *211 0.0110306
*CONN
*I *938:A I *D sky130_fd_sc_hd__inv_2
*I *903:A I *D sky130_fd_sc_hd__and4_1
*I *1061:Q O *D sky130_fd_sc_hd__dfrtp_1
*CAP
1 *938:A 0.0010085
2 *903:A 0.000729766
3 *1061:Q 0.000420353
4 *211:10 0.00215862
5 *938:A *1052:A 0.000695344
6 *938:A *215:18 0.000484379
7 *903:B *903:A 2.08208e-05
8 *942:A *903:A 7.63717e-05
9 *942:A *211:10 0.000522522
10 *1003:A *938:A 3.84842e-05
11 *1003:B *938:A 0.00213664
12 *1010:A *903:A 0
13 *1012:B *903:A 7.35184e-05
14 *1013:A *903:A 0.000159285
15 *1056:RESET_B *903:A 2.74396e-05
16 *1062:D *211:10 0.000265375
17 *1066:CLK *938:A 2.49909e-05
18 *1066:D *903:A 8.7152e-06
19 *1066:D *211:10 0.000523854
20 *37:12 *938:A 0.000914998
21 *155:39 *211:10 1.91597e-05
22 *159:24 *903:A 9.61675e-05
23 *162:34 *938:A 9.01026e-05
24 *183:61 *938:A 7.55581e-05
25 *184:66 *903:A 0.000379874
26 *195:73 *903:A 7.97135e-05
27 *196:18 *903:A 0
*RES
1 *1061:Q *211:10 12.945 
2 *211:10 *903:A 18.495 
3 *211:10 *938:A 31.65 
*END

*D_NET *212 0.0209258
*CONN
*I *944:A1 I *D sky130_fd_sc_hd__a31o_1
*I *909:A1 I *D sky130_fd_sc_hd__o31a_1
*I *941:A I *D sky130_fd_sc_hd__nand2_1
*I *940:A I *D sky130_fd_sc_hd__or2_1
*I *945:B I *D sky130_fd_sc_hd__and4_2
*I *1062:Q O *D sky130_fd_sc_hd__dfrtp_2
*CAP
1 *944:A1 0.000333842
2 *909:A1 0
3 *941:A 0.00130708
4 *940:A 0.000144916
5 *945:B 0.000388174
6 *1062:Q 0
7 *212:37 0.00287043
8 *212:29 0.00175813
9 *212:25 0.00109602
10 *212:6 0.000810659
11 *941:A *899:A1 0.000548994
12 *941:A *214:72 0.000158066
13 *945:B *945:A 0.000606427
14 *945:B *213:28 0.000222128
15 *894:B *941:A 0.000514048
16 *899:A2 *941:A 0.000370943
17 *909:B1 *212:37 2.75145e-05
18 *911:A2 *212:29 2.54522e-05
19 *941:B *941:A 0.00116956
20 *944:A3 *944:A1 1.85674e-05
21 *945:D *945:B 6.07254e-05
22 *955:A *944:A1 0.000505773
23 *955:A *212:25 0.000814951
24 *968:A *944:A1 0.00033867
25 *986:C *945:B 0.000105463
26 *1005:A *212:25 1.15688e-05
27 *1006:B *940:A 6.60257e-06
28 *1017:B1 *945:B 0.000117065
29 *1017:B1 *212:25 0.000170806
30 *1032:A *212:29 0.000638154
31 *1032:A *212:37 6.90475e-05
32 *1034:A *945:B 0.00041761
33 *1039:A *941:A 0.000230435
34 *1062:RESET_B *945:B 0.000199458
35 *1066:RESET_B *941:A 0.000298142
36 *1069:RESET_B *941:A 0.000130828
37 *1072:RESET_B *941:A 0.000390827
38 *1084:RESET_B *941:A 0.000132178
39 *35:10 *944:A1 0.000108764
40 *35:10 *945:B 9.32397e-06
41 *35:10 *212:25 5.2849e-05
42 *93:50 *944:A1 0.000173266
43 *96:12 *941:A 0.000178617
44 *181:100 *941:A 1.6974e-05
45 *185:27 *941:A 0.000302096
46 *185:43 *940:A 4.66108e-05
47 *185:43 *941:A 4.66108e-05
48 *186:18 *940:A 0.000125963
49 *186:18 *212:37 2.96342e-05
50 *193:30 *212:37 0.00154127
51 *194:49 *212:25 0.000840699
52 *197:41 *940:A 0.000257425
53 *197:41 *212:37 6.83447e-05
54 *203:48 *941:A 0.000118081
*RES
1 *1062:Q *212:6 3.6 
2 *212:6 *945:B 15.69 
3 *212:6 *212:25 14.175 
4 *212:25 *212:29 8.66 
5 *212:29 *212:37 20.495 
6 *212:37 *940:A 7.215 
7 *212:37 *941:A 39.475 
8 *212:29 *909:A1 1.6 
9 *212:25 *944:A1 12.795 
*END

*D_NET *213 0.0249588
*CONN
*I *906:C I *D sky130_fd_sc_hd__or4_1
*I *944:B1 I *D sky130_fd_sc_hd__a31o_1
*I *945:A I *D sky130_fd_sc_hd__and4_2
*I *1063:Q O *D sky130_fd_sc_hd__dfrtp_2
*CAP
1 *906:C 3.56749e-05
2 *944:B1 0.000691372
3 *945:A 0.000157547
4 *1063:Q 0.00272208
5 *213:28 0.00323362
6 *213:14 0.00514246
7 an[1] *213:14 6.1994e-05
8 an[3] *213:14 1.97486e-05
9 an[4] *213:14 1.97486e-05
10 an[5] *213:14 2.05641e-05
11 an[6] *213:14 4.36438e-05
12 seg[1] *213:14 1.97486e-05
13 seg[2] *213:14 2.05641e-05
14 *903:B *213:14 0.000433499
15 *903:B *213:28 0.000399969
16 *906:D *906:C 1.88602e-05
17 *908:B *944:B1 9.3062e-06
18 *920:A2 *213:14 2.59783e-05
19 *931:A1 *213:14 0
20 *933:B *213:14 0
21 *944:A3 *944:B1 0.000488278
22 *945:B *945:A 0.000606427
23 *945:B *213:28 0.000222128
24 *945:D *945:A 0.000417476
25 *959:B *906:C 4.06846e-05
26 *981:B1 *213:28 7.5434e-05
27 *1005:B *944:B1 0.00074452
28 *1062:RESET_B *213:28 0.00012679
29 *1075:RESET_B *213:14 0.000345556
30 *1075:RESET_B *213:28 0.000355392
31 *1078:RESET_B *944:B1 0.000203679
32 *1079:RESET_B *213:14 2.92939e-05
33 *1079:RESET_B *213:28 1.03191e-05
34 *1081:RESET_B *213:28 0.00209164
35 *21:16 *213:14 6.8016e-05
36 *22:16 *944:B1 0.000946893
37 *35:10 *213:28 0.000129099
38 *41:12 *213:14 0
39 *62:26 *945:A 4.99619e-05
40 *69:12 *213:14 0.00143449
41 *80:18 *944:B1 0.000206016
42 *97:14 *906:C 8.52845e-05
43 *102:51 *213:14 0.00224765
44 *166:69 *213:28 0.000587667
45 *167:43 *213:14 0
46 *189:63 *906:C 1.08732e-05
47 *190:20 *906:C 4.7003e-05
48 *195:73 *213:28 0.000198863
49 *199:18 *213:28 3.91569e-06
50 *204:43 *213:28 0
51 *205:12 *213:14 4.11685e-05
52 *210:34 *213:14 6.78789e-05
*RES
1 *1063:Q *213:14 46.285 
2 *213:14 *213:28 12.0928 
3 *213:28 *945:A 7.225 
4 *213:28 *944:B1 27.635 
5 *213:14 *906:C 5.3825 
*END

*D_NET *214 0.0282917
*CONN
*I *899:A1 I *D sky130_fd_sc_hd__o21a_1
*I *895:A1 I *D sky130_fd_sc_hd__a211oi_1
*I *898:A1 I *D sky130_fd_sc_hd__a21oi_1
*I *896:A1 I *D sky130_fd_sc_hd__a21oi_1
*I *889:A I *D sky130_fd_sc_hd__and3_1
*I *1053:Q O *D sky130_fd_sc_hd__dfrtp_4
*CAP
1 *899:A1 0.00022772
2 *895:A1 0.000726097
3 *898:A1 0.000594153
4 *896:A1 0.000131947
5 *889:A 0.00128921
6 *1053:Q 0
7 *214:72 0.00225531
8 *214:62 0.00163321
9 *214:43 0.00231069
10 *214:4 0.00299751
11 *889:C *889:A 6.99162e-05
12 *894:B *899:A1 0.000558189
13 *894:B *214:72 0.00015639
14 *895:A2 *895:A1 0.000271074
15 *895:C1 *895:A1 2.26739e-05
16 *897:B *214:43 0.000852896
17 *898:A2 *898:A1 0.00015755
18 *898:B1 *898:A1 4.66108e-05
19 *899:B1 *898:A1 0.000106782
20 *899:B1 *899:A1 0.000193801
21 *917:B *214:43 3.09774e-05
22 *917:B *214:62 4.41506e-05
23 *917:C *896:A1 2.67222e-05
24 *918:A *896:A1 0.000158937
25 *918:A *214:43 0.000200325
26 *929:C *895:A1 0.000679218
27 *931:B1 *214:62 0.00016514
28 *931:B1 *214:72 2.6347e-05
29 *932:A *214:62 4.66108e-05
30 *932:B *214:62 6.14215e-05
31 *932:C *896:A1 4.77719e-05
32 *932:C *214:62 0.000179523
33 *937:A *898:A1 0.000156771
34 *941:A *899:A1 0.000548994
35 *941:A *214:72 0.000158066
36 *941:B *899:A1 9.14049e-05
37 *943:A *898:A1 1.93765e-05
38 *951:C *899:A1 2.24421e-05
39 *958:A *889:A 0.000194567
40 *958:A *214:43 0.00028839
41 *960:A *898:A1 8.23457e-05
42 *960:B *898:A1 9.77048e-06
43 *960:C *898:A1 0.000695984
44 *983:D *899:A1 0.000196376
45 *990:C *214:62 0.000170024
46 *997:A *889:A 0.000245866
47 *1004:B1 *889:A 0.000117851
48 *1006:B *214:43 7.23602e-05
49 *1006:C *214:43 0.000208061
50 *1010:B *214:43 7.06865e-05
51 *1039:A *214:62 4.9968e-05
52 *1058:D *899:A1 0.000131731
53 *1060:D *214:72 0.000125653
54 *1070:D *214:72 8.818e-05
55 *1071:CLK *214:72 2.49909e-05
56 *1071:D *214:72 3.59531e-06
57 *1071:RESET_B *895:A1 6.95753e-05
58 *1074:CLK *889:A 4.31789e-05
59 *1078:CLK *214:43 5.83121e-06
60 *1079:D *889:A 0.000133105
61 *1082:D *889:A 8.73147e-06
62 *1090:A *898:A1 8.53113e-06
63 *20:58 *889:A 0.000294203
64 *20:58 *214:43 0.000503573
65 *20:152 *898:A1 7.08076e-05
66 *48:22 *889:A 5.03926e-05
67 *62:26 *898:A1 0.000174447
68 *84:12 *889:A 8.28334e-05
69 *85:16 *895:A1 0.000948732
70 *103:24 *898:A1 3.93467e-05
71 *103:24 *214:72 6.33103e-05
72 *112:18 *214:43 0.000275186
73 *112:75 *898:A1 7.96104e-06
74 *117:47 *898:A1 6.52219e-05
75 *119:47 *214:62 0.000140081
76 *137:31 *214:72 0.000668763
77 *159:24 *898:A1 1.7635e-05
78 *167:20 *214:72 0.000113621
79 *168:26 *214:43 0.000276852
80 *179:14 *889:A 8.33066e-06
81 *179:16 *889:A 0.000191763
82 *179:18 *889:A 0.00034489
83 *179:22 *889:A 0.000678586
84 *179:35 *889:A 4.27883e-06
85 *181:10 *214:62 0.000108871
86 *181:12 *214:62 0.000219721
87 *181:18 *214:62 0.000155366
88 *181:82 *214:62 0.000190459
89 *182:17 *214:72 9.17974e-05
90 *191:22 *214:72 0.000189713
91 *191:33 *214:72 0.00037161
92 *191:43 *214:72 0.000283981
93 *192:57 *214:62 0.000389688
94 *192:86 *898:A1 6.51073e-05
95 *194:57 *889:A 0.000130171
96 *194:61 *889:A 0.00020624
97 *196:10 *898:A1 1.79483e-05
98 *207:18 *214:43 8.50801e-06
99 *208:34 *898:A1 0.000508128
100 *209:24 *214:62 2.22814e-05
*RES
1 *1053:Q *214:4 1.6 
2 *214:4 *889:A 34.13 
3 *214:4 *214:43 35.57 
4 *214:43 *896:A1 4.585 
5 *214:43 *214:62 17.77 
6 *214:62 *214:72 25.105 
7 *214:72 *898:A1 23.9811 
8 *214:72 *895:A1 21.11 
9 *214:62 *899:A1 14.345 
*END

*D_NET *215 0.0211602
*CONN
*I *1052:A I *D sky130_fd_sc_hd__inv_2
*I *1029:A I *D sky130_fd_sc_hd__clkbuf_8
*I *1051:A I *D sky130_fd_sc_hd__inv_2
*I *1040:A I *D sky130_fd_sc_hd__buf_4
*I *1018:A I *D sky130_fd_sc_hd__buf_4
*I *1094:X O *D sky130_fd_sc_hd__buf_2
*CAP
1 *1052:A 0.000522985
2 *1029:A 0
3 *1051:A 0
4 *1040:A 0.000403526
5 *1018:A 2.4121e-05
6 *1094:X 0.00215566
7 *215:40 0.000850555
8 *215:32 0.000941414
9 *215:22 0.00109211
10 *215:18 0.00325225
11 *1040:A *220:10 0.000192194
12 *215:40 *1014:B1_N 0.000135399
13 *215:40 *219:16 3.83194e-05
14 *904:B *1040:A 0.000438153
15 *904:B *215:40 4.7878e-05
16 *907:D *215:18 0.00133607
17 *912:A2 *215:18 0.000234356
18 *938:A *1052:A 0.000695344
19 *938:A *215:18 0.000484379
20 *974:B *215:32 3.5427e-05
21 *986:B *215:32 0
22 *992:A *215:18 0.000386221
23 *1014:A1 *215:40 0.000158543
24 *1016:A *215:32 1.88602e-05
25 *1032:A *215:18 0.000120655
26 *1064:RESET_B *215:18 0
27 *1065:RESET_B *215:18 0.000148113
28 *1069:RESET_B *1040:A 0.00082032
29 *1069:RESET_B *215:40 4.66474e-05
30 *1082:RESET_B *1018:A 8.23457e-05
31 *1082:RESET_B *215:32 0.000142951
32 *1082:RESET_B *215:40 4.27764e-05
33 *22:16 *215:18 0.00155351
34 *48:22 *215:18 0
35 *97:14 *215:22 0
36 *133:34 *215:32 5.88779e-05
37 *133:34 *215:40 0.00162191
38 *148:10 *215:32 0
39 *175:16 *1018:A 8.23457e-05
40 *175:16 *215:40 0.00110974
41 *175:103 *215:18 5.78377e-05
42 *176:61 *215:22 0.000934506
43 *176:61 *215:32 2.85364e-05
44 *181:44 *1040:A 0.000265741
45 *188:22 *215:32 0.000452121
46 *207:18 *1040:A 0.000147494
*RES
1 *1094:X *215:18 48.74 
2 *215:18 *215:22 13.58 
3 *215:22 *215:32 12.305 
4 *215:32 *215:40 18.515 
5 *215:40 *1018:A 4.395 
6 *215:40 *1040:A 16.17 
7 *215:32 *1051:A 1.6 
8 *215:22 *1029:A 3.6 
9 *215:18 *1052:A 8.785 
*END

*D_NET *216 0.00226597
*CONN
*I *1095:A I *D sky130_fd_sc_hd__buf_1
*I *1085:X O *D sky130_fd_sc_hd__clkbuf_1
*CAP
1 *1095:A 0.000741177
2 *1085:X 0.000741177
3 *1095:A *1096:A 0.000327474
4 *914:B *1095:A 0.000137229
5 *920:A1 *1095:A 7.02378e-05
6 *920:B1 *1095:A 6.9669e-05
7 *921:C *1095:A 0
8 *1079:RESET_B *1095:A 0
9 *1080:D *1095:A 0
10 *210:34 *1095:A 0.000179008
*RES
1 *1085:X *1095:A 21.06 
*END

*D_NET *217 0.00551714
*CONN
*I *1096:A I *D sky130_fd_sc_hd__buf_1
*I *1011:Y O *D sky130_fd_sc_hd__nor2_1
*CAP
1 *1096:A 0.00138946
2 *1011:Y 0.00138946
3 *920:A1 *1096:A 0.000201739
4 *925:A *1096:A 0.000610923
5 *942:C *1096:A 0
6 *989:A *1096:A 0.000446383
7 *1011:A *1096:A 0.000156758
8 *1011:B *1096:A 0.000241664
9 *1079:RESET_B *1096:A 0
10 *1080:D *1096:A 0
11 *1095:A *1096:A 0.000327474
12 *117:47 *1096:A 0.00048142
13 *210:34 *1096:A 0.000271855
*RES
1 *1011:Y *1096:A 37.47 
*END

*D_NET *218 0.00581581
*CONN
*I *1097:A I *D sky130_fd_sc_hd__buf_1
*I *1015:Y O *D sky130_fd_sc_hd__a21oi_1
*CAP
1 *1097:A 0.00173388
2 *1015:Y 0.00173388
3 *1097:A *1099:A 0.000137441
4 *921:A *1097:A 0.000197862
5 *965:A1 *1097:A 1.42598e-05
6 *965:B1 *1097:A 0.000107546
7 *1000:A1 *1097:A 0.000558353
8 *1037:A *1097:A 0
9 *1055:RESET_B *1097:A 6.15576e-06
10 *1057:D *1097:A 0.000716373
11 *1075:RESET_B *1097:A 0.000320493
12 *175:159 *1097:A 0
13 *207:18 *1097:A 0.000289562
*RES
1 *1015:Y *1097:A 39.825 
*END

*D_NET *219 0.00960639
*CONN
*I *1098:A I *D sky130_fd_sc_hd__buf_1
*I *1085:A I *D sky130_fd_sc_hd__clkbuf_1
*I *1014:Y O *D sky130_fd_sc_hd__a21boi_1
*CAP
1 *1098:A 0.000323588
2 *1085:A 0
3 *1014:Y 0.00152588
4 *219:16 0.00184947
5 *219:16 *1014:B1_N 4.89395e-05
6 *903:C *219:16 0.000658126
7 *903:D *219:16 8.23457e-05
8 *950:A *219:16 0.00103481
9 *950:B *219:16 0.000242137
10 *951:C *219:16 0.00013106
11 *975:A *219:16 1.0522e-05
12 *980:C *219:16 8.247e-05
13 *1037:A *219:16 0.00255823
14 *1061:D *219:16 0.000502887
15 *1082:RESET_B *219:16 0.000120655
16 *94:10 *219:16 0.000154501
17 *199:18 *219:16 0.00024243
18 *215:40 *219:16 3.83194e-05
*RES
1 *1014:Y *219:16 46.55 
2 *219:16 *1085:A 1.6 
3 *219:16 *1098:A 6.19 
*END

*D_NET *220 0.0114355
*CONN
*I *1099:A I *D sky130_fd_sc_hd__buf_1
*I *1014:B1_N I *D sky130_fd_sc_hd__a21boi_1
*I *1013:X O *D sky130_fd_sc_hd__buf_1
*CAP
1 *1099:A 0.00242306
2 *1014:B1_N 0.000750147
3 *1013:X 0.000575793
4 *220:10 0.003749
5 seg[4] *1099:A 1.17114e-05
6 *904:B *220:10 0.000406959
7 *919:A *1099:A 1.91597e-05
8 *919:B *1099:A 0.00015639
9 *921:A *1099:A 1.94483e-05
10 *965:A1 *1099:A 4.60061e-05
11 *965:B1 *1099:A 5.26654e-05
12 *1015:A2 *1099:A 1.05984e-05
13 *1040:A *220:10 0.000192194
14 *1050:A *1099:A 0.000120407
15 *1058:RESET_B *220:10 2.18287e-05
16 *1068:RESET_B *1014:B1_N 4.76303e-05
17 *1069:RESET_B *220:10 4.3033e-05
18 *1073:RESET_B *220:10 9.18057e-05
19 *1078:RESET_B *220:10 0.00023098
20 *1082:RESET_B *1014:B1_N 0.00110874
21 *1082:RESET_B *1099:A 0.000400498
22 *1097:A *1099:A 0.000137441
23 *20:22 *220:10 0
24 *20:50 *220:10 0
25 *69:12 *1099:A 3.83646e-05
26 *175:16 *1014:B1_N 0.000158556
27 *190:14 *220:10 8.33066e-06
28 *190:20 *220:10 0.000414574
29 *204:8 *1014:B1_N 1.58293e-05
30 *215:40 *1014:B1_N 0.000135399
31 *219:16 *1014:B1_N 4.89395e-05
*RES
1 *1013:X *220:10 18.71 
2 *220:10 *1014:B1_N 17.93 
3 *220:10 *1099:A 33.995 
*END

*D_NET *221 0.017927
*CONN
*I *1100:A I *D sky130_fd_sc_hd__buf_1
*I *1016:Y O *D sky130_fd_sc_hd__inv_2
*CAP
1 *1100:A 0.00559539
2 *1016:Y 0.00559539
3 seg[5] *1100:A 1.12156e-05
4 *921:B *1100:A 0.000108608
5 *921:C *1100:A 0.000152106
6 *939:A1 *1100:A 0.00283843
7 *939:A2 *1100:A 4.44256e-05
8 *995:A *1100:A 0.00020132
9 *997:B *1100:A 6.13283e-05
10 *1028:A *1100:A 0.00021964
11 *1068:D *1100:A 0.000149356
12 *1068:RESET_B *1100:A 0.00251467
13 *1074:RESET_B *1100:A 0
14 *126:16 *1100:A 0.00018691
15 *126:47 *1100:A 0.000248194
*RES
1 *1016:Y *1100:A 25.8614 
*END

*D_NET *222 0.0102426
*CONN
*I *1101:A I *D sky130_fd_sc_hd__buf_1
*I *1017:Y O *D sky130_fd_sc_hd__a21oi_1
*CAP
1 *1101:A 0.00212289
2 *1017:Y 0.0020287
3 *222:16 0.00415159
4 seg[6] *1101:A 1.17114e-05
5 *889:B *222:16 0
6 *889:C *222:16 0
7 *982:A2 *222:16 0.00173367
8 *982:A3 *222:16 0
9 *995:B *222:16 6.67019e-05
10 *1024:A *222:16 7.49727e-06
11 *1058:RESET_B *222:16 0.000119873
*RES
1 *1017:Y *222:16 42.2375 
2 *222:16 *1101:A 29.3375 
*END
